*Heading
** Job name: Arch_Bridge Model name: Arch_Bridge
** Generated by: Abaqus/CAE 2020
*Preprint, echo=NO, model=NO, history=NO, contact=NO
**
** PARTS
**
*Part, name="Arch bridge"
*Node
      1,   23.1997776,   1.49999976,  0.662938356
      2,   2.03362703,   1.49999976,   1.15307057
      3,   2.03362703,   1.09999979,   1.15307057
      4,   23.1997776,   1.09999979,  0.662938356
      5,   2.03362703,  -1.10000014,   1.15307057
      6,   23.1997776,  -1.10000014,  0.662938356
      7,   2.03362703,  -1.50000024,   1.15307057
      8,   23.1997776,  -1.50000024,  0.662938356
      9,   2.17355919,   1.49999976,   1.09904313
     10,   2.17355919,   1.09999979,   1.09904313
     11,   2.17355919,  -1.10000014,   1.09904313
     12,   2.17355919,  -1.50000024,   1.09904313
     13,   23.0574951,  -1.50000024,  0.615446031
     14,   23.0574951,   1.49999976,  0.615446031
     15,   23.0574951,   1.09999979,  0.615446031
     16,   23.0574951,  -1.10000014,  0.615446031
     17,    2.6400001,   1.49999976,  0.918951631
     18,   22.5832176,   1.49999976,  0.457138181
     19,   22.5832176,   1.09999979,  0.457138181
     20,   22.5832176,  -1.10000014,  0.457138181
     21,   22.5832176,  -1.50000024,  0.457138181
     22,    2.6400001,   1.09999979,  0.918951631
     23,    2.6400001,  -1.10000014,  0.918951631
     24,    2.6400001,  -1.50000024,  0.918951631
     25,  -1.46693325,   1.19999981,   5.44848537
     26,   12.8100004,   1.19999981,   8.86999989
     27,   31.8745461,   1.19999981,   4.35419607
     28,   12.8100004,   1.19999981,   9.27000046
     29,   32.2299995,   1.19999981,   4.67000008
     30,  -1.56999993,   1.19999981,   5.82000017
     31,   12.8100004,   1.49999976,   8.86999989
     32,  -1.46693325,   1.49999976,   5.44848537
     33,  -1.56999993,   1.49999976,   5.82000017
     34,   12.8100004,   1.49999976,   9.27000046
     35,   32.2299995,   1.49999976,   4.67000008
     36,   31.8745461,   1.49999976,   4.35419607
     37,  -1.46693325,  -1.50000024,   5.44848537
     38,   12.8100004,  -1.50000024,   8.86999989
     39,   31.8745461,  -1.50000024,   4.35419607
     40,   12.8100004,  -1.50000024,   9.27000046
     41,   32.2299995,  -1.50000024,   4.67000008
     42,  -1.56999993,  -1.50000024,   5.82000017
     43,   12.8100004,  -1.20000029,   8.86999989
     44,  -1.46693325,  -1.20000029,   5.44848537
     45,  -1.56999993,  -1.20000029,   5.82000017
     46,   12.8100004,  -1.20000029,   9.27000046
     47,   32.2299995,  -1.20000029,   4.67000008
     48,   31.8745461,  -1.20000029,   4.35419607
     49,    2.6400001,  -1.10000014, 2.09283826e-08
     50, 5.46278898e-08,  -1.10000014, 2.09283826e-08
     51,  -1.46693325,  -1.10000014,   5.44848537
     52,   12.8100004,  -1.10000014,   8.86999989
     53,   31.8745461,  -1.10000014,   4.35419607
     54,   26.9300003,  -1.10000014,  -0.12999998
     55,   22.1299992,  -1.10000014,  -2.32999992
     56,   22.1299992,  -1.50000024,  -2.32999992
     57,   26.9300003,  -1.50000024,  -0.12999998
     58, 5.46278898e-08,  -1.50000024, 2.09283826e-08
     59,    2.6400001,  -1.50000024, 2.09283826e-08
     60,   22.1299992,    1.0999999,  -2.32999992
     61,   26.9300003,    1.0999999,  -0.12999998
     62,   31.8745461,    1.0999999,   4.35419607
     63,   12.8100004,    1.0999999,   8.86999989
     64,  -1.46693325,    1.0999999,   5.44848537
     65, 5.46278898e-08,    1.0999999, 2.09283826e-08
     66,    2.6400001,    1.0999999, 2.09283826e-08
     67,   22.1299992,   1.49999976,  -2.32999992
     68,   26.9300003,   1.49999976,  -0.12999998
     69, 5.46278898e-08,   1.49999976, 2.09283826e-08
     70,    2.6400001,   1.49999976, 2.09283826e-08
     71,   23.0271721,   1.49999976,     1.143453
     72,   22.8329449,   1.49999976,   1.61564124
     73,   22.6174908,   1.49999976,   2.07853055
     74,   22.3812561,   1.49999976,   2.53116727
     75,   22.1247292,   1.49999976,    2.9726193
     76,   21.8484344,   1.49999976,   3.40197754
     77,   21.5529442,   1.49999976,   3.81835699
     78,   21.2388668,   1.49999976,   4.22090054
     79,    20.906847,   1.49999976,   4.60877943
     80,   20.5575714,   1.49999976,   4.98119354
     81,   20.1917572,   1.49999976,   5.33737707
     82,   19.8101578,   1.49999976,   5.67659521
     83,   19.4135609,   1.49999976,   5.99815035
     84,   19.0027828,   1.49999976,    6.3013792
     85,   18.5786686,   1.49999976,   6.58565807
     86,   18.1420937,   1.49999976,   6.85040045
     87,   17.6939564,   1.49999976,   7.09506178
     88,   17.2351799,   1.49999976,   7.31913805
     89,   16.7667084,   1.49999976,   7.52216768
     90,   16.2895069,   1.49999976,   7.70373201
     91,   15.8045588,   1.49999976,   7.86345768
     92,   15.3128633,   1.49999976,   8.00101566
     93,   14.8154335,   1.49999976,   8.11612225
     94,   14.3132925,   1.49999976,   8.20853996
     95,   13.8074751,   1.49999976,   8.27807999
     96,   13.2990236,   1.49999976,   8.32459736
     97,   12.7889853,   1.49999976,   8.34799671
     98,   12.2784109,   1.49999976,   8.34823132
     99,   11.7683516,   1.49999976,   8.32529831
    100,   11.2598581,   1.49999976,   8.27924728
    101,   10.7539778,   1.49999976,   8.21017075
    102,   10.2517519,   1.49999976,    8.1182127
    103,   9.75421619,   1.49999976,   8.00356197
    104,   9.26239491,   1.49999976,   7.86645508
    105,   8.77730083,   1.49999976,   7.70717382
    106,   8.29993343,   1.49999976,   7.52604628
    107,   7.83127642,   1.49999976,   7.32344627
    108,   7.37229443,   1.49999976,   7.09979057
    109,   6.92393255,   1.49999976,    6.8555398
    110,   6.48711491,   1.49999976,   6.59119749
    111,   6.06274128,   1.49999976,   6.30730724
    112,   5.65168571,   1.49999976,   6.00445461
    113,   5.25479412,   1.49999976,    5.6832633
    114,   4.87288523,   1.49999976,   5.34439468
    115,   4.50674438,   1.49999976,   4.98854685
    116,    4.1571269,   1.49999976,   4.61645269
    117,   3.82475233,   1.49999976,    4.2288785
    118,    3.5103054,   1.49999976,   3.82662272
    119,   3.21443367,   1.49999976,   3.41051412
    120,   2.93774676,   1.49999976,   2.98140931
    121,   2.68081427,   1.49999976,   2.54019237
    122,   2.44416571,   1.49999976,   2.08777237
    123,   2.22828841,   1.49999976,    1.6250807
    124,   2.03362703,   1.29999983,   1.15307057
    125,   2.22828841,   1.09999979,    1.6250807
    126,   2.44416571,   1.09999979,   2.08777237
    127,   2.68081427,   1.09999979,   2.54019237
    128,   2.93774676,   1.09999979,   2.98140931
    129,   3.21443367,   1.09999979,   3.41051412
    130,    3.5103054,   1.09999979,   3.82662272
    131,   3.82475233,   1.09999979,    4.2288785
    132,    4.1571269,   1.09999979,   4.61645269
    133,   4.50674438,   1.09999979,   4.98854685
    134,   4.87288523,   1.09999979,   5.34439468
    135,   5.25479412,   1.09999979,    5.6832633
    136,   5.65168571,   1.09999979,   6.00445461
    137,   6.06274128,   1.09999979,   6.30730724
    138,   6.48711491,   1.09999979,   6.59119749
    139,   6.92393255,   1.09999979,    6.8555398
    140,   7.37229443,   1.09999979,   7.09979057
    141,   7.83127642,   1.09999979,   7.32344627
    142,   8.29993343,   1.09999979,   7.52604628
    143,   8.77730083,   1.09999979,   7.70717382
    144,   9.26239491,   1.09999979,   7.86645508
    145,   9.75421619,   1.09999979,   8.00356197
    146,   10.2517519,   1.09999979,    8.1182127
    147,   10.7539778,   1.09999979,   8.21017075
    148,   11.2598581,   1.09999979,   8.27924728
    149,   11.7683516,   1.09999979,   8.32529831
    150,   12.2784109,   1.09999979,   8.34823132
    151,   12.7889853,   1.09999979,   8.34799671
    152,   13.2990236,   1.09999979,   8.32459736
    153,   13.8074751,   1.09999979,   8.27807999
    154,   14.3132925,   1.09999979,   8.20853996
    155,   14.8154335,   1.09999979,   8.11612225
    156,   15.3128633,   1.09999979,   8.00101566
    157,   15.8045588,   1.09999979,   7.86345768
    158,   16.2895069,   1.09999979,   7.70373201
    159,   16.7667084,   1.09999979,   7.52216768
    160,   17.2351799,   1.09999979,   7.31913805
    161,   17.6939564,   1.09999979,   7.09506178
    162,   18.1420937,   1.09999979,   6.85040092
    163,   18.5786686,   1.09999979,   6.58565807
    164,   19.0027828,   1.09999979,    6.3013792
    165,   19.4135609,   1.09999979,   5.99815035
    166,   19.8101578,   1.09999979,   5.67659521
    167,   20.1917572,   1.09999979,   5.33737659
    168,   20.5575714,   1.09999979,   4.98119307
    169,    20.906847,   1.09999979,   4.60877943
    170,   21.2388668,   1.09999979,   4.22090054
    171,   21.5529442,   1.09999979,   3.81835723
    172,   21.8484344,   1.09999979,   3.40197778
    173,   22.1247292,   1.09999979,    2.9726193
    174,   22.3812561,   1.09999979,   2.53116751
    175,   22.6174908,   1.09999979,   2.07853055
    176,   22.8329449,   1.09999979,     1.615641
    177,   23.0271721,   1.09999979,   1.14345324
    178,   23.1997776,   1.29999983,  0.662938356
    179,   2.03362703,  0.549999833,   1.15307057
    180,   2.03362703, -1.6565464e-07,   1.15307057
    181,   2.03362703, -0.550000191,   1.15307057
    182,   2.22828841,  -1.10000014,    1.6250807
    183,   2.44416571,  -1.10000014,   2.08777237
    184,   2.68081427,  -1.10000014,   2.54019237
    185,   2.93774676,  -1.10000014,   2.98140931
    186,   3.21443367,  -1.10000014,   3.41051412
    187,    3.5103054,  -1.10000014,   3.82662272
    188,   3.82475233,  -1.10000014,    4.2288785
    189,    4.1571269,  -1.10000014,   4.61645269
    190,   4.50674438,  -1.10000014,   4.98854685
    191,   4.87288523,  -1.10000014,   5.34439468
    192,   5.25479412,  -1.10000014,    5.6832633
    193,   5.65168571,  -1.10000014,   6.00445461
    194,   6.06274128,  -1.10000014,   6.30730724
    195,   6.48711491,  -1.10000014,   6.59119749
    196,   6.92393255,  -1.10000014,    6.8555398
    197,   7.37229443,  -1.10000014,   7.09979057
    198,   7.83127642,  -1.10000014,   7.32344627
    199,   8.29993343,  -1.10000014,   7.52604628
    200,   8.77730083,  -1.10000014,   7.70717382
    201,   9.26239491,  -1.10000014,   7.86645508
    202,   9.75421619,  -1.10000014,   8.00356197
    203,   10.2517519,  -1.10000014,    8.1182127
    204,   10.7539778,  -1.10000014,   8.21017075
    205,   11.2598581,  -1.10000014,   8.27924728
    206,   11.7683516,  -1.10000014,   8.32529831
    207,   12.2784109,  -1.10000014,   8.34823132
    208,   12.7889853,  -1.10000014,   8.34799671
    209,   13.2990236,  -1.10000014,   8.32459736
    210,   13.8074751,  -1.10000014,   8.27807999
    211,   14.3132925,  -1.10000014,   8.20853996
    212,   14.8154335,  -1.10000014,   8.11612225
    213,   15.3128633,  -1.10000014,   8.00101566
    214,   15.8045588,  -1.10000014,   7.86345768
    215,   16.2895069,  -1.10000014,   7.70373201
    216,   16.7667084,  -1.10000014,   7.52216768
    217,   17.2351799,  -1.10000014,   7.31913805
    218,   17.6939564,  -1.10000014,   7.09506178
    219,   18.1420937,  -1.10000014,   6.85040045
    220,   18.5786686,  -1.10000014,   6.58565807
    221,   19.0027828,  -1.10000014,    6.3013792
    222,   19.4135609,  -1.10000014,   5.99815035
    223,   19.8101578,  -1.10000014,   5.67659521
    224,   20.1917572,  -1.10000014,   5.33737707
    225,   20.5575714,  -1.10000014,   4.98119354
    226,    20.906847,  -1.10000014,   4.60877943
    227,   21.2388668,  -1.10000014,   4.22090054
    228,   21.5529442,  -1.10000014,   3.81835699
    229,   21.8484344,  -1.10000014,   3.40197754
    230,   22.1247292,  -1.10000014,    2.9726193
    231,   22.3812561,  -1.10000014,   2.53116727
    232,   22.6174908,  -1.10000014,   2.07853055
    233,   22.8329449,  -1.10000014,   1.61564124
    234,   23.0271721,  -1.10000014,     1.143453
    235,   23.1997776, -0.550000191,  0.662938356
    236,   23.1997776, -1.6565464e-07,  0.662938356
    237,   23.1997776,  0.549999833,  0.662938356
    238,   2.03362703,  -1.30000019,   1.15307057
    239,   2.22828841,  -1.50000024,    1.6250807
    240,   2.44416571,  -1.50000024,   2.08777237
    241,   2.68081427,  -1.50000024,   2.54019237
    242,   2.93774676,  -1.50000024,   2.98140931
    243,   3.21443367,  -1.50000024,   3.41051412
    244,    3.5103054,  -1.50000024,   3.82662272
    245,   3.82475233,  -1.50000024,    4.2288785
    246,    4.1571269,  -1.50000024,   4.61645269
    247,   4.50674438,  -1.50000024,   4.98854685
    248,   4.87288523,  -1.50000024,   5.34439468
    249,   5.25479412,  -1.50000024,    5.6832633
    250,   5.65168571,  -1.50000024,   6.00445461
    251,   6.06274128,  -1.50000024,   6.30730724
    252,   6.48711491,  -1.50000024,   6.59119749
    253,   6.92393255,  -1.50000024,    6.8555398
    254,   7.37229443,  -1.50000024,   7.09979057
    255,   7.83127642,  -1.50000024,   7.32344627
    256,   8.29993343,  -1.50000024,   7.52604628
    257,   8.77730083,  -1.50000024,   7.70717382
    258,   9.26239491,  -1.50000024,   7.86645508
    259,   9.75421619,  -1.50000024,   8.00356197
    260,   10.2517519,  -1.50000024,    8.1182127
    261,   10.7539778,  -1.50000024,   8.21017075
    262,   11.2598581,  -1.50000024,   8.27924728
    263,   11.7683516,  -1.50000024,   8.32529831
    264,   12.2784109,  -1.50000024,   8.34823132
    265,   12.7889853,  -1.50000024,   8.34799671
    266,   13.2990236,  -1.50000024,   8.32459736
    267,   13.8074751,  -1.50000024,   8.27807999
    268,   14.3132925,  -1.50000024,   8.20853996
    269,   14.8154335,  -1.50000024,   8.11612225
    270,   15.3128633,  -1.50000024,   8.00101566
    271,   15.8045588,  -1.50000024,   7.86345768
    272,   16.2895069,  -1.50000024,   7.70373201
    273,   16.7667084,  -1.50000024,   7.52216768
    274,   17.2351799,  -1.50000024,   7.31913805
    275,   17.6939564,  -1.50000024,   7.09506178
    276,   18.1420937,  -1.50000024,   6.85040045
    277,   18.5786686,  -1.50000024,   6.58565807
    278,   19.0027828,  -1.50000024,    6.3013792
    279,   19.4135609,  -1.50000024,   5.99815035
    280,   19.8101578,  -1.50000024,   5.67659521
    281,   20.1917572,  -1.50000024,   5.33737707
    282,   20.5575714,  -1.50000024,   4.98119354
    283,    20.906847,  -1.50000024,   4.60877943
    284,   21.2388668,  -1.50000024,   4.22090054
    285,   21.5529442,  -1.50000024,   3.81835699
    286,   21.8484344,  -1.50000024,   3.40197754
    287,   22.1247292,  -1.50000024,    2.9726193
    288,   22.3812561,  -1.50000024,   2.53116727
    289,   22.6174908,  -1.50000024,   2.07853055
    290,   22.8329449,  -1.50000024,   1.61564124
    291,   23.0271721,  -1.50000024,     1.143453
    292,   23.1997776,  -1.30000019,  0.662938356
    293,   2.36562514,   1.49999976,   1.56475973
    294,   2.57862401,   1.49999976,    2.0212822
    295,   2.81211734,   1.49999976,   2.46766996
    296,     3.065624,   1.49999976,   2.90300393
    297,   3.33862185,   1.49999976,   3.32638741
    298,   3.63054872,   1.49999976,   3.73694801
    299,   3.94080305,   1.49999976,   4.13384008
    300,    4.2687459,   1.49999976,    4.5162468
    301,   4.61370182,   1.49999976,   4.88337994
    302,   4.97496033,   1.49999976,   5.23448324
    303,   5.35177755,   1.49999976,   5.56883335
    304,   5.74337673,   1.49999976,   5.88574219
    305,   6.14895201,   1.49999976,   6.18455696
    306,   6.56766748,   1.49999976,    6.4646616
    307,   6.99866104,   1.49999976,    6.7254796
    308,   7.44104433,   1.49999976,   6.96647358
    309,   7.89390659,   1.49999976,   7.18714714
    310,   8.35631561,   1.49999976,   7.38704586
    311,   8.82731819,   1.49999976,   7.56575823
    312,   9.30594349,   1.49999976,   7.72291565
    313,   9.79120731,   1.49999976,   7.85819483
    314,   10.2821093,   1.49999976,   7.97131681
    315,   10.7776384,   1.49999976,   8.06204891
    316,   11.2767735,   1.49999976,   8.13020325
    317,   11.7784872,   1.49999976,   8.17564106
    318,   12.2817459,   1.49999976,   8.19826794
    319,   12.7855129,   1.49999976,   8.19803715
    320,   13.2887506,   1.49999976,   8.17494965
    321,   13.7904224,   1.49999976,   8.12905216
    322,   14.2894955,   1.49999976,   8.06044006
    323,   14.7849417,   1.49999976,   7.96925402
    324,   15.2757397,   1.49999976,   7.85568237
    325,   15.7608786,   1.49999976,   7.71995831
    326,   16.2393608,   1.49999976,   7.56236267
    327,   16.7101994,   1.49999976,   7.38321877
    328,   17.1724243,   1.49999976,   7.18289661
    329,   17.6250839,   1.49999976,    6.9618082
    330,   18.0672474,   1.49999976,   6.72040892
    331,   18.4980011,   1.49999976,   6.45919609
    332,     18.91646,   1.49999976,    6.1787076
    333,   19.3217602,   1.49999976,   5.87952185
    334,   19.7130699,   1.49999976,   5.56225395
    335,   20.0895805,   1.49999976,   5.22755861
    336,   20.4505177,   1.49999976,   4.87612438
    337,   20.7951374,   1.49999976,   4.50867558
    338,   21.1227283,   1.49999976,   4.12596893
    339,   21.4326191,   1.49999976,   3.72879243
    340,   21.7241707,   1.49999976,   3.31796455
    341,   21.9967804,   1.49999976,   2.89433122
    342,   22.2498875,   1.49999976,   2.45876527
    343,   22.4829712,   1.49999976,   2.01216364
    344,   22.6955528,   1.49999976,   1.55544615
    345,   22.8871918,   1.49999976,   1.08955383
    346,   2.17355919,   1.29999983,   1.09904313
    347,   2.17355919, -0.550000191,   1.09904313
    348,   2.17355919, -1.73189136e-07,   1.09904313
    349,   2.17355919,  0.549999833,   1.09904313
    350,   2.17355919,  -1.30000019,   1.09904313
    351,   22.8871918,  -1.50000024,   1.08955383
    352,   22.6955528,  -1.50000024,   1.55544615
    353,   22.4829712,  -1.50000024,   2.01216364
    354,   22.2498875,  -1.50000024,   2.45876527
    355,   21.9967804,  -1.50000024,   2.89433122
    356,   21.7241707,  -1.50000024,   3.31796455
    357,   21.4326191,  -1.50000024,   3.72879243
    358,   21.1227283,  -1.50000024,   4.12596893
    359,   20.7951374,  -1.50000024,   4.50867558
    360,   20.4505177,  -1.50000024,   4.87612438
    361,   20.0895805,  -1.50000024,   5.22755861
    362,   19.7130699,  -1.50000024,   5.56225395
    363,   19.3217602,  -1.50000024,   5.87952185
    364,     18.91646,  -1.50000024,    6.1787076
    365,   18.4980011,  -1.50000024,   6.45919609
    366,   18.0672474,  -1.50000024,   6.72040892
    367,   17.6250839,  -1.50000024,    6.9618082
    368,   17.1724243,  -1.50000024,   7.18289661
    369,   16.7101994,  -1.50000024,   7.38321877
    370,   16.2393608,  -1.50000024,   7.56236267
    371,   15.7608786,  -1.50000024,   7.71995831
    372,   15.2757397,  -1.50000024,   7.85568237
    373,   14.7849417,  -1.50000024,   7.96925402
    374,   14.2894955,  -1.50000024,   8.06044006
    375,   13.7904224,  -1.50000024,   8.12905216
    376,   13.2887506,  -1.50000024,   8.17494965
    377,   12.7855129,  -1.50000024,   8.19803715
    378,   12.2817459,  -1.50000024,   8.19826794
    379,   11.7784872,  -1.50000024,   8.17564106
    380,   11.2767735,  -1.50000024,   8.13020325
    381,   10.7776384,  -1.50000024,   8.06204891
    382,   10.2821093,  -1.50000024,   7.97131681
    383,   9.79120731,  -1.50000024,   7.85819483
    384,   9.30594349,  -1.50000024,   7.72291565
    385,   8.82731819,  -1.50000024,   7.56575823
    386,   8.35631561,  -1.50000024,   7.38704586
    387,   7.89390659,  -1.50000024,   7.18714714
    388,   7.44104433,  -1.50000024,   6.96647358
    389,   6.99866104,  -1.50000024,    6.7254796
    390,   6.56766748,  -1.50000024,    6.4646616
    391,   6.14895201,  -1.50000024,   6.18455696
    392,   5.74337673,  -1.50000024,   5.88574219
    393,   5.35177755,  -1.50000024,   5.56883335
    394,   4.97496033,  -1.50000024,   5.23448324
    395,   4.61370182,  -1.50000024,   4.88337994
    396,    4.2687459,  -1.50000024,    4.5162468
    397,   3.94080305,  -1.50000024,   4.13384008
    398,   3.63054872,  -1.50000024,   3.73694801
    399,   3.33862185,  -1.50000024,   3.32638741
    400,     3.065624,  -1.50000024,   2.90300393
    401,   2.81211734,  -1.50000024,   2.46766996
    402,   2.57862401,  -1.50000024,    2.0212822
    403,   2.36562514,  -1.50000024,   1.56475973
    404,   23.0574951,   1.29999983,  0.615446031
    405,   23.0574951,  0.549999833,  0.615446031
    406,   23.0574951, -1.73189136e-07,  0.615446031
    407,   23.0574951, -0.550000191,  0.615446031
    408,   23.0574951,  -1.30000019,  0.615446031
    409,   2.82341433,   1.49999976,   1.36369002
    410,   3.02681875,   1.49999976,    1.7996484
    411,   3.24979424,   1.49999976,   2.22592878
    412,   3.49188185,   1.49999976,   2.64165306
    413,   3.75258231,   1.49999976,   3.04596496
    414,    4.0313592,   1.49999976,   3.43803191
    415,   4.32763815,   1.49999976,   3.81704617
    416,   4.64080906,   1.49999976,   4.18222713
    417,   4.97022629,   1.49999976,   4.53282261
    418,   5.31521225,   1.49999976,   4.86811066
    419,    5.6750555,   1.49999976,   5.18739986
    420,   6.04901505,   1.49999976,   5.49003363
    421,   6.43632126,   1.49999976,   5.77538824
    422,   6.83617544,   1.49999976,   6.04287529
    423,   7.24775457,   1.49999976,   6.29194498
    424,   7.67021084,   1.49999976,   6.52208328
    425,   8.10267448,   1.49999976,    6.7328167
    426,   8.54425335,   1.49999976,    6.9237113
    427,   8.99403954,   1.49999976,   7.09437323
    428,   9.45110607,   1.49999976,   7.24445152
    429,   9.91451073,   1.49999976,    7.3736372
    430,   10.3832998,   1.49999976,   7.48166323
    431,   10.8565083,   1.49999976,   7.56830835
    432,   11.3331594,   1.49999976,   7.63339329
    433,    11.812274,   1.49999976,   7.67678404
    434,   12.2928629,   1.49999976,   7.69839191
    435,   12.7739382,   1.49999976,   7.69817114
    436,   13.2545071,   1.49999976,   7.67612362
    437,   13.7335815,   1.49999976,    7.6322937
    438,   14.2101736,   1.49999976,   7.56677198
    439,   14.6833019,   1.49999976,   7.47969341
    440,   15.1519918,   1.49999976,   7.37123775
    441,   15.6152782,   1.49999976,   7.24162769
    442,   16.0722065,   1.49999976,   7.09113073
    443,   16.5218372,   1.49999976,   6.92005634
    444,   16.9632397,   1.49999976,   6.72875738
    445,   17.3955097,   1.49999976,   6.51762819
    446,   17.8177567,   1.49999976,    6.2871027
    447,   18.2291069,   1.49999976,   6.03765631
    448,   18.6287155,   1.49999976,   5.76980257
    449,   19.0157604,   1.49999976,   5.48409319
    450,   19.3894424,   1.49999976,   5.18111706
    451,   19.7489929,   1.49999976,   4.86149788
    452,   20.0936718,   1.49999976,   4.52589417
    453,   20.4227676,   1.49999976,   4.17499733
    454,   20.7356033,   1.49999976,    3.8095293
    455,   21.0315342,   1.49999976,   3.43024373
    456,   21.3099518,   1.49999976,   3.03792167
    457,    21.570282,   1.49999976,   2.63337088
    458,   21.8119888,   1.49999976,   2.21742487
    459,   22.0345745,   1.49999976,   1.79094052
    460,   22.2375793,   1.49999976,   1.35479593
    461,   22.4205856,   1.49999976,  0.909889758
    462,   22.5832176,   1.29999983,  0.457138181
    463,   22.5832176,  0.549999833,  0.457138181
    464,   22.5832176, -1.6565464e-07,  0.457138181
    465,   22.5832176, -0.550000191,  0.457138181
    466,   22.5832176,  -1.30000019,  0.457138181
    467,   22.4205856,  -1.50000024,  0.909889758
    468,   22.2375793,  -1.50000024,   1.35479593
    469,   22.0345745,  -1.50000024,   1.79094052
    470,   21.8119888,  -1.50000024,   2.21742487
    471,    21.570282,  -1.50000024,   2.63337088
    472,   21.3099518,  -1.50000024,   3.03792167
    473,   21.0315342,  -1.50000024,   3.43024373
    474,   20.7356033,  -1.50000024,    3.8095293
    475,   20.4227676,  -1.50000024,   4.17499733
    476,   20.0936718,  -1.50000024,   4.52589417
    477,   19.7489929,  -1.50000024,   4.86149788
    478,   19.3894424,  -1.50000024,   5.18111706
    479,   19.0157604,  -1.50000024,   5.48409319
    480,   18.6287155,  -1.50000024,   5.76980257
    481,   18.2291069,  -1.50000024,   6.03765631
    482,   17.8177567,  -1.50000024,    6.2871027
    483,   17.3955097,  -1.50000024,   6.51762819
    484,   16.9632397,  -1.50000024,   6.72875738
    485,   16.5218372,  -1.50000024,   6.92005634
    486,   16.0722065,  -1.50000024,   7.09113073
    487,   15.6152782,  -1.50000024,   7.24162769
    488,   15.1519918,  -1.50000024,   7.37123775
    489,   14.6833019,  -1.50000024,   7.47969341
    490,   14.2101736,  -1.50000024,   7.56677198
    491,   13.7335815,  -1.50000024,    7.6322937
    492,   13.2545071,  -1.50000024,   7.67612362
    493,   12.7739382,  -1.50000024,   7.69817114
    494,   12.2928629,  -1.50000024,   7.69839191
    495,    11.812274,  -1.50000024,   7.67678404
    496,   11.3331594,  -1.50000024,   7.63339329
    497,   10.8565083,  -1.50000024,   7.56830835
    498,   10.3832998,  -1.50000024,   7.48166323
    499,   9.91451073,  -1.50000024,    7.3736372
    500,   9.45110607,  -1.50000024,   7.24445152
    501,   8.99403954,  -1.50000024,   7.09437323
    502,   8.54425335,  -1.50000024,    6.9237113
    503,   8.10267448,  -1.50000024,    6.7328167
    504,   7.67021084,  -1.50000024,   6.52208328
    505,   7.24775457,  -1.50000024,   6.29194498
    506,   6.83617544,  -1.50000024,   6.04287529
    507,   6.43632126,  -1.50000024,   5.77538824
    508,   6.04901505,  -1.50000024,   5.49003363
    509,    5.6750555,  -1.50000024,   5.18739986
    510,   5.31521225,  -1.50000024,   4.86811066
    511,   4.97022629,  -1.50000024,   4.53282261
    512,   4.64080906,  -1.50000024,   4.18222713
    513,   4.32763815,  -1.50000024,   3.81704617
    514,    4.0313592,  -1.50000024,   3.43803191
    515,   3.75258231,  -1.50000024,   3.04596496
    516,   3.49188185,  -1.50000024,   2.64165306
    517,   3.24979424,  -1.50000024,   2.22592878
    518,   3.02681875,  -1.50000024,    1.7996484
    519,   2.82341433,  -1.50000024,   1.36369002
    520,    2.6400001,   1.29999983,  0.918951631
    521,    2.6400001, -0.550000191,  0.918951631
    522,    2.6400001, -1.6565464e-07,  0.918951631
    523,    2.6400001,  0.549999833,  0.918951631
    524,    2.6400001,  -1.30000019,  0.918951631
    525, -0.974625289,   1.19999981,   5.56646872
    526, -0.482317209,   1.19999981,   5.68445206
    527, 0.00999083277,   1.19999981,    5.8024354
    528,  0.502298892,   1.19999981,   5.92041874
    529,  0.994606912,   1.19999981,    6.0384016
    530,   1.48691499,   1.19999981,   6.15638494
    531,   1.97922301,   1.19999981,   6.27436829
    532,   2.47153115,   1.19999981,   6.39235163
    533,   2.96383905,   1.19999981,   6.51033497
    534,   3.45614719,   1.19999981,   6.62831831
    535,    3.9484551,   1.19999981,   6.74630117
    536,   4.44076347,   1.19999981,   6.86428452
    537,   4.93307114,   1.19999981,   6.98226786
    538,   5.42537928,   1.19999981,    7.1002512
    539,   5.91768742,   1.19999981,   7.21823454
    540,   6.40999556,   1.19999981,   7.33621788
    541,    6.9023037,   1.19999981,   7.45420074
    542,   7.39461136,   1.19999981,   7.57218409
    543,    7.8869195,   1.19999981,   7.69016743
    544,   8.37922764,   1.19999981,   7.80815077
    545,    8.8715353,   1.19999981,   7.92613411
    546,   9.36384392,   1.19999981,   8.04411697
    547,   9.85615158,   1.19999981,   8.16210079
    548,   10.3484602,   1.19999981,   8.28008366
    549,   10.8407679,   1.19999981,   8.39806652
    550,   11.3330755,   1.19999981,   8.51605034
    551,   11.8253841,   1.19999981,    8.6340332
    552,   12.3176918,   1.19999981,   8.75201702
    553,   13.2988348,   1.19999981,   8.75421047
    554,   13.7876692,   1.19999981,    8.6384201
    555,   14.2765036,   1.19999981,   8.52263069
    556,   14.7653379,   1.19999981,   8.40684032
    557,   15.2541723,   1.19999981,   8.29105091
    558,   15.7430067,   1.19999981,   8.17526054
    559,    16.231842,   1.19999981,   8.05947113
    560,   16.7206764,   1.19999981,   7.94368124
    561,   17.2095108,   1.19999981,   7.82789135
    562,   17.6983452,   1.19999981,   7.71210146
    563,   18.1871796,   1.19999981,   7.59631157
    564,   18.6760139,   1.19999981,   7.48052216
    565,   19.1648483,   1.19999981,   7.36473227
    566,   19.6536827,   1.19999981,   7.24894238
    567,   20.1425171,   1.19999981,   7.13315248
    568,   20.6313515,   1.19999981,   7.01736259
    569,   21.1201859,   1.19999981,    6.9015727
    570,   21.6090202,   1.19999981,   6.78578281
    571,   22.0978565,   1.19999981,   6.66999292
    572,   22.5866909,   1.19999981,   6.55420303
    573,   23.0755253,   1.19999981,   6.43841314
    574,   23.5643597,   1.19999981,   6.32262373
    575,    24.053194,   1.19999981,   6.20683384
    576,   24.5420284,   1.19999981,   6.09104395
    577,   25.0308628,   1.19999981,   5.97525406
    578,   25.5196972,   1.19999981,   5.85946417
    579,   26.0085316,   1.19999981,   5.74367428
    580,    26.497366,   1.19999981,   5.62788439
    581,   26.9862003,   1.19999981,    5.5120945
    582,   27.4750347,   1.19999981,   5.39630461
    583,   27.9638691,   1.19999981,   5.28051472
    584,   28.4527035,   1.19999981,    5.1647253
    585,   28.9415379,   1.19999981,   5.04893541
    586,   29.4303741,   1.19999981,   4.93314552
    587,   29.9192085,   1.19999981,   4.81735563
    588,   30.4080429,   1.19999981,   4.70156574
    589,   30.8968773,   1.19999981,   4.58577585
    590,   31.3857117,   1.19999981,   4.46998596
    591,   12.3141384,   1.19999981,   9.15103436
    592,   11.8182755,   1.19999981,   9.03206921
    593,   11.3224134,   1.19999981,    8.9131031
    594,   10.8265514,   1.19999981,   8.79413795
    595,   10.3306894,   1.19999981,   8.67517281
    596,   9.83482742,   1.19999981,    8.5562067
    597,   9.33896542,   1.19999981,   8.43724155
    598,   8.84310341,   1.19999981,   8.31827545
    599,    8.3472414,   1.19999981,    8.1993103
    600,   7.85137939,   1.19999981,   8.08034515
    601,   7.35551739,   1.19999981,   7.96137953
    602,   6.85965538,   1.19999981,    7.8424139
    603,   6.36379337,   1.19999981,   7.72344828
    604,   5.86793089,   1.19999981,   7.60448265
    605,   5.37206888,   1.19999981,   7.48551702
    606,   4.87620687,   1.19999981,   7.36655188
    607,   4.38034487,   1.19999981,   7.24758625
    608,   3.88448286,   1.19999981,   7.12862062
    609,   3.38862085,   1.19999981,     7.009655
    610,   2.89275861,   1.19999981,   6.89068985
    611,    2.3968966,   1.19999981,   6.77172422
    612,   1.90103459,   1.19999981,    6.6527586
    613,   1.40517247,   1.19999981,   6.53379297
    614,    0.9093104,   1.19999981,   6.41482782
    615,  0.413448334,   1.19999981,    6.2958622
    616, -0.0824137405,   1.19999981,   6.17689657
    617,   -0.5782758,   1.19999981,   6.05793095
    618,  -1.07413793,   1.19999981,   5.93896532
    619,   31.7320518,   1.19999981,   4.78794861
    620,   31.2341022,   1.19999981,   4.90589762
    621,   30.7361546,   1.19999981,   5.02384615
    622,    30.238205,   1.19999981,   5.14179468
    623,   29.7402573,   1.19999981,   5.25974369
    624,   29.2423077,   1.19999981,   5.37769222
    625,     28.74436,   1.19999981,   5.49564123
    626,   28.2464104,   1.19999981,   5.61358976
    627,   27.7484608,   1.19999981,    5.7315383
    628,   27.2505131,   1.19999981,    5.8494873
    629,   26.7525635,   1.19999981,   5.96743584
    630,   26.2546158,   1.19999981,   6.08538485
    631,   25.7566662,   1.19999981,   6.20333338
    632,   25.2587185,   1.19999981,   6.32128191
    633,   24.7607689,   1.19999981,   6.43923092
    634,   24.2628212,   1.19999981,   6.55717945
    635,   23.7648716,   1.19999981,   6.67512846
    636,   23.2669239,   1.19999981,   6.79307699
    637,   22.7689743,   1.19999981,   6.91102552
    638,   22.2710266,   1.19999981,   7.02897453
    639,    21.773077,   1.19999981,   7.14692307
    640,   21.2751274,   1.19999981,    7.2648716
    641,   20.7771797,   1.19999981,   7.38282061
    642,   20.2792301,   1.19999981,   7.50076914
    643,   19.7812824,   1.19999981,   7.61871815
    644,   19.2833328,   1.19999981,   7.73666668
    645,   18.7853851,   1.19999981,   7.85461521
    646,   18.2874355,   1.19999981,   7.97256422
    647,   17.7894878,   1.19999981,   8.09051323
    648,   17.2915382,   1.19999981,   8.20846176
    649,   16.7935905,   1.19999981,   8.32641029
    650,   16.2956409,   1.19999981,   8.44435883
    651,   15.7976923,   1.19999981,   8.56230736
    652,   15.2997437,   1.19999981,   8.68025684
    653,    14.801795,   1.19999981,   8.79820538
    654,   14.3038464,   1.19999981,   8.91615391
    655,   13.8058977,   1.19999981,   9.03410244
    656,   13.3079491,   1.19999981,   9.15205097
    657,   12.3176918,   1.49999976,   8.75201702
    658,   11.8253841,   1.49999976,    8.6340332
    659,   11.3330755,   1.49999976,   8.51605034
    660,   10.8407679,   1.49999976,   8.39806652
    661,   10.3484602,   1.49999976,   8.28008366
    662,   9.85615158,   1.49999976,   8.16210079
    663,   9.36384392,   1.49999976,   8.04411697
    664,    8.8715353,   1.49999976,   7.92613411
    665,   8.37922764,   1.49999976,   7.80815077
    666,    7.8869195,   1.49999976,   7.69016743
    667,   7.39461136,   1.49999976,   7.57218409
    668,    6.9023037,   1.49999976,   7.45420074
    669,   6.40999556,   1.49999976,   7.33621788
    670,   5.91768742,   1.49999976,   7.21823454
    671,   5.42537928,   1.49999976,    7.1002512
    672,   4.93307114,   1.49999976,   6.98226786
    673,   4.44076347,   1.49999976,   6.86428452
    674,    3.9484551,   1.49999976,   6.74630117
    675,   3.45614719,   1.49999976,   6.62831831
    676,   2.96383905,   1.49999976,   6.51033497
    677,   2.47153115,   1.49999976,   6.39235163
    678,   1.97922301,   1.49999976,   6.27436829
    679,   1.48691499,   1.49999976,   6.15638494
    680,  0.994606912,   1.49999976,    6.0384016
    681,  0.502298892,   1.49999976,   5.92041874
    682, 0.00999083277,   1.49999976,    5.8024354
    683, -0.482317209,   1.49999976,   5.68445206
    684, -0.974625289,   1.49999976,   5.56646872
    685,  -1.07413793,   1.49999976,   5.93896532
    686,   -0.5782758,   1.49999976,   6.05793095
    687, -0.0824137405,   1.49999976,   6.17689657
    688,  0.413448334,   1.49999976,    6.2958622
    689,    0.9093104,   1.49999976,   6.41482782
    690,   1.40517247,   1.49999976,   6.53379297
    691,   1.90103459,   1.49999976,    6.6527586
    692,    2.3968966,   1.49999976,   6.77172422
    693,   2.89275861,   1.49999976,   6.89068985
    694,   3.38862085,   1.49999976,     7.009655
    695,   3.88448286,   1.49999976,   7.12862062
    696,   4.38034487,   1.49999976,   7.24758625
    697,   4.87620687,   1.49999976,   7.36655188
    698,   5.37206888,   1.49999976,   7.48551702
    699,   5.86793089,   1.49999976,   7.60448265
    700,   6.36379337,   1.49999976,   7.72344828
    701,   6.85965538,   1.49999976,    7.8424139
    702,   7.35551739,   1.49999976,   7.96137953
    703,   7.85137939,   1.49999976,   8.08034515
    704,    8.3472414,   1.49999976,    8.1993103
    705,   8.84310341,   1.49999976,   8.31827545
    706,   9.33896542,   1.49999976,   8.43724155
    707,   9.83482742,   1.49999976,    8.5562067
    708,   10.3306894,   1.49999976,   8.67517281
    709,   10.8265514,   1.49999976,   8.79413795
    710,   11.3224134,   1.49999976,    8.9131031
    711,   11.8182755,   1.49999976,   9.03206921
    712,   12.3141384,   1.49999976,   9.15103436
    713,   13.3079491,   1.49999976,   9.15205097
    714,   13.8058977,   1.49999976,   9.03410244
    715,   14.3038464,   1.49999976,   8.91615391
    716,    14.801795,   1.49999976,   8.79820538
    717,   15.2997437,   1.49999976,   8.68025684
    718,   15.7976923,   1.49999976,   8.56230736
    719,   16.2956409,   1.49999976,   8.44435883
    720,   16.7935905,   1.49999976,   8.32641029
    721,   17.2915382,   1.49999976,   8.20846176
    722,   17.7894878,   1.49999976,   8.09051323
    723,   18.2874355,   1.49999976,   7.97256422
    724,   18.7853851,   1.49999976,   7.85461521
    725,   19.2833328,   1.49999976,   7.73666668
    726,   19.7812824,   1.49999976,   7.61871815
    727,   20.2792301,   1.49999976,   7.50076914
    728,   20.7771797,   1.49999976,   7.38282061
    729,   21.2751274,   1.49999976,    7.2648716
    730,    21.773077,   1.49999976,   7.14692307
    731,   22.2710266,   1.49999976,   7.02897453
    732,   22.7689743,   1.49999976,   6.91102552
    733,   23.2669239,   1.49999976,   6.79307699
    734,   23.7648716,   1.49999976,   6.67512846
    735,   24.2628212,   1.49999976,   6.55717945
    736,   24.7607689,   1.49999976,   6.43923092
    737,   25.2587185,   1.49999976,   6.32128191
    738,   25.7566662,   1.49999976,   6.20333338
    739,   26.2546158,   1.49999976,   6.08538485
    740,   26.7525635,   1.49999976,   5.96743584
    741,   27.2505131,   1.49999976,    5.8494873
    742,   27.7484608,   1.49999976,    5.7315383
    743,   28.2464104,   1.49999976,   5.61358976
    744,     28.74436,   1.49999976,   5.49564123
    745,   29.2423077,   1.49999976,   5.37769222
    746,   29.7402573,   1.49999976,   5.25974369
    747,    30.238205,   1.49999976,   5.14179468
    748,   30.7361546,   1.49999976,   5.02384615
    749,   31.2341022,   1.49999976,   4.90589762
    750,   31.7320518,   1.49999976,   4.78794861
    751,   31.3857117,   1.49999976,   4.46998596
    752,   30.8968773,   1.49999976,   4.58577585
    753,   30.4080429,   1.49999976,   4.70156574
    754,   29.9192085,   1.49999976,   4.81735563
    755,   29.4303741,   1.49999976,   4.93314552
    756,   28.9415379,   1.49999976,   5.04893541
    757,   28.4527035,   1.49999976,    5.1647253
    758,   27.9638691,   1.49999976,   5.28051472
    759,   27.4750347,   1.49999976,   5.39630461
    760,   26.9862003,   1.49999976,    5.5120945
    761,    26.497366,   1.49999976,   5.62788439
    762,   26.0085316,   1.49999976,   5.74367428
    763,   25.5196972,   1.49999976,   5.85946417
    764,   25.0308628,   1.49999976,   5.97525406
    765,   24.5420284,   1.49999976,   6.09104395
    766,    24.053194,   1.49999976,   6.20683384
    767,   23.5643597,   1.49999976,   6.32262373
    768,   23.0755253,   1.49999976,   6.43841314
    769,   22.5866909,   1.49999976,   6.55420303
    770,   22.0978565,   1.49999976,   6.66999292
    771,   21.6090202,   1.49999976,   6.78578281
    772,   21.1201859,   1.49999976,    6.9015727
    773,   20.6313515,   1.49999976,   7.01736259
    774,   20.1425171,   1.49999976,   7.13315248
    775,   19.6536827,   1.49999976,   7.24894238
    776,   19.1648483,   1.49999976,   7.36473227
    777,   18.6760139,   1.49999976,   7.48052216
    778,   18.1871796,   1.49999976,   7.59631157
    779,   17.6983452,   1.49999976,   7.71210146
    780,   17.2095108,   1.49999976,   7.82789135
    781,   16.7206764,   1.49999976,   7.94368124
    782,    16.231842,   1.49999976,   8.05947113
    783,   15.7430067,   1.49999976,   8.17526054
    784,   15.2541723,   1.49999976,   8.29105091
    785,   14.7653379,   1.49999976,   8.40684032
    786,   14.2765036,   1.49999976,   8.52263069
    787,   13.7876692,   1.49999976,    8.6384201
    788,   13.2988348,   1.49999976,   8.75421047
    789, -0.974625289,  -1.50000024,   5.56646872
    790, -0.482317209,  -1.50000024,   5.68445206
    791, 0.00999083277,  -1.50000024,    5.8024354
    792,  0.502298892,  -1.50000024,   5.92041874
    793,  0.994606912,  -1.50000024,    6.0384016
    794,   1.48691499,  -1.50000024,   6.15638494
    795,   1.97922301,  -1.50000024,   6.27436829
    796,   2.47153115,  -1.50000024,   6.39235163
    797,   2.96383905,  -1.50000024,   6.51033497
    798,   3.45614719,  -1.50000024,   6.62831831
    799,    3.9484551,  -1.50000024,   6.74630117
    800,   4.44076347,  -1.50000024,   6.86428452
    801,   4.93307114,  -1.50000024,   6.98226786
    802,   5.42537928,  -1.50000024,    7.1002512
    803,   5.91768742,  -1.50000024,   7.21823454
    804,   6.40999556,  -1.50000024,   7.33621788
    805,    6.9023037,  -1.50000024,   7.45420074
    806,   7.39461136,  -1.50000024,   7.57218409
    807,    7.8869195,  -1.50000024,   7.69016743
    808,   8.37922764,  -1.50000024,   7.80815077
    809,    8.8715353,  -1.50000024,   7.92613411
    810,   9.36384392,  -1.50000024,   8.04411697
    811,   9.85615158,  -1.50000024,   8.16210079
    812,   10.3484602,  -1.50000024,   8.28008366
    813,   10.8407679,  -1.50000024,   8.39806652
    814,   11.3330755,  -1.50000024,   8.51605034
    815,   11.8253841,  -1.50000024,    8.6340332
    816,   12.3176918,  -1.50000024,   8.75201702
    817,   13.2988348,  -1.50000024,   8.75421047
    818,   13.7876692,  -1.50000024,    8.6384201
    819,   14.2765036,  -1.50000024,   8.52263069
    820,   14.7653379,  -1.50000024,   8.40684032
    821,   15.2541723,  -1.50000024,   8.29105091
    822,   15.7430067,  -1.50000024,   8.17526054
    823,    16.231842,  -1.50000024,   8.05947113
    824,   16.7206764,  -1.50000024,   7.94368124
    825,   17.2095108,  -1.50000024,   7.82789135
    826,   17.6983452,  -1.50000024,   7.71210146
    827,   18.1871796,  -1.50000024,   7.59631157
    828,   18.6760139,  -1.50000024,   7.48052216
    829,   19.1648483,  -1.50000024,   7.36473227
    830,   19.6536827,  -1.50000024,   7.24894238
    831,   20.1425171,  -1.50000024,   7.13315248
    832,   20.6313515,  -1.50000024,   7.01736259
    833,   21.1201859,  -1.50000024,    6.9015727
    834,   21.6090202,  -1.50000024,   6.78578281
    835,   22.0978565,  -1.50000024,   6.66999292
    836,   22.5866909,  -1.50000024,   6.55420303
    837,   23.0755253,  -1.50000024,   6.43841314
    838,   23.5643597,  -1.50000024,   6.32262373
    839,    24.053194,  -1.50000024,   6.20683384
    840,   24.5420284,  -1.50000024,   6.09104395
    841,   25.0308628,  -1.50000024,   5.97525406
    842,   25.5196972,  -1.50000024,   5.85946417
    843,   26.0085316,  -1.50000024,   5.74367428
    844,    26.497366,  -1.50000024,   5.62788439
    845,   26.9862003,  -1.50000024,    5.5120945
    846,   27.4750347,  -1.50000024,   5.39630461
    847,   27.9638691,  -1.50000024,   5.28051472
    848,   28.4527035,  -1.50000024,    5.1647253
    849,   28.9415379,  -1.50000024,   5.04893541
    850,   29.4303741,  -1.50000024,   4.93314552
    851,   29.9192085,  -1.50000024,   4.81735563
    852,   30.4080429,  -1.50000024,   4.70156574
    853,   30.8968773,  -1.50000024,   4.58577585
    854,   31.3857117,  -1.50000024,   4.46998596
    855,   12.3141384,  -1.50000024,   9.15103436
    856,   11.8182755,  -1.50000024,   9.03206921
    857,   11.3224134,  -1.50000024,    8.9131031
    858,   10.8265514,  -1.50000024,   8.79413795
    859,   10.3306894,  -1.50000024,   8.67517281
    860,   9.83482742,  -1.50000024,    8.5562067
    861,   9.33896542,  -1.50000024,   8.43724155
    862,   8.84310341,  -1.50000024,   8.31827545
    863,    8.3472414,  -1.50000024,    8.1993103
    864,   7.85137939,  -1.50000024,   8.08034515
    865,   7.35551739,  -1.50000024,   7.96137953
    866,   6.85965538,  -1.50000024,    7.8424139
    867,   6.36379337,  -1.50000024,   7.72344828
    868,   5.86793089,  -1.50000024,   7.60448265
    869,   5.37206888,  -1.50000024,   7.48551702
    870,   4.87620687,  -1.50000024,   7.36655188
    871,   4.38034487,  -1.50000024,   7.24758625
    872,   3.88448286,  -1.50000024,   7.12862062
    873,   3.38862085,  -1.50000024,     7.009655
    874,   2.89275861,  -1.50000024,   6.89068985
    875,    2.3968966,  -1.50000024,   6.77172422
    876,   1.90103459,  -1.50000024,    6.6527586
    877,   1.40517247,  -1.50000024,   6.53379297
    878,    0.9093104,  -1.50000024,   6.41482782
    879,  0.413448334,  -1.50000024,    6.2958622
    880, -0.0824137405,  -1.50000024,   6.17689657
    881,   -0.5782758,  -1.50000024,   6.05793095
    882,  -1.07413793,  -1.50000024,   5.93896532
    883,   31.7320518,  -1.50000024,   4.78794861
    884,   31.2341022,  -1.50000024,   4.90589762
    885,   30.7361546,  -1.50000024,   5.02384615
    886,    30.238205,  -1.50000024,   5.14179468
    887,   29.7402573,  -1.50000024,   5.25974369
    888,   29.2423077,  -1.50000024,   5.37769222
    889,     28.74436,  -1.50000024,   5.49564123
    890,   28.2464104,  -1.50000024,   5.61358976
    891,   27.7484608,  -1.50000024,    5.7315383
    892,   27.2505131,  -1.50000024,    5.8494873
    893,   26.7525635,  -1.50000024,   5.96743584
    894,   26.2546158,  -1.50000024,   6.08538485
    895,   25.7566662,  -1.50000024,   6.20333338
    896,   25.2587185,  -1.50000024,   6.32128191
    897,   24.7607689,  -1.50000024,   6.43923092
    898,   24.2628212,  -1.50000024,   6.55717945
    899,   23.7648716,  -1.50000024,   6.67512846
    900,   23.2669239,  -1.50000024,   6.79307699
    901,   22.7689743,  -1.50000024,   6.91102552
    902,   22.2710266,  -1.50000024,   7.02897453
    903,    21.773077,  -1.50000024,   7.14692307
    904,   21.2751274,  -1.50000024,    7.2648716
    905,   20.7771797,  -1.50000024,   7.38282061
    906,   20.2792301,  -1.50000024,   7.50076914
    907,   19.7812824,  -1.50000024,   7.61871815
    908,   19.2833328,  -1.50000024,   7.73666668
    909,   18.7853851,  -1.50000024,   7.85461521
    910,   18.2874355,  -1.50000024,   7.97256422
    911,   17.7894878,  -1.50000024,   8.09051323
    912,   17.2915382,  -1.50000024,   8.20846176
    913,   16.7935905,  -1.50000024,   8.32641029
    914,   16.2956409,  -1.50000024,   8.44435883
    915,   15.7976923,  -1.50000024,   8.56230736
    916,   15.2997437,  -1.50000024,   8.68025684
    917,    14.801795,  -1.50000024,   8.79820538
    918,   14.3038464,  -1.50000024,   8.91615391
    919,   13.8058977,  -1.50000024,   9.03410244
    920,   13.3079491,  -1.50000024,   9.15205097
    921,   12.3176918,  -1.20000029,   8.75201702
    922,   11.8253841,  -1.20000029,    8.6340332
    923,   11.3330755,  -1.20000029,   8.51605034
    924,   10.8407679,  -1.20000029,   8.39806652
    925,   10.3484602,  -1.20000029,   8.28008366
    926,   9.85615158,  -1.20000029,   8.16210079
    927,   9.36384392,  -1.20000029,   8.04411697
    928,    8.8715353,  -1.20000029,   7.92613411
    929,   8.37922764,  -1.20000029,   7.80815077
    930,    7.8869195,  -1.20000029,   7.69016743
    931,   7.39461136,  -1.20000029,   7.57218409
    932,    6.9023037,  -1.20000029,   7.45420074
    933,   6.40999556,  -1.20000029,   7.33621788
    934,   5.91768742,  -1.20000029,   7.21823454
    935,   5.42537928,  -1.20000029,    7.1002512
    936,   4.93307114,  -1.20000029,   6.98226786
    937,   4.44076347,  -1.20000029,   6.86428452
    938,    3.9484551,  -1.20000029,   6.74630117
    939,   3.45614719,  -1.20000029,   6.62831831
    940,   2.96383905,  -1.20000029,   6.51033497
    941,   2.47153115,  -1.20000029,   6.39235163
    942,   1.97922301,  -1.20000029,   6.27436829
    943,   1.48691499,  -1.20000029,   6.15638494
    944,  0.994606912,  -1.20000029,    6.0384016
    945,  0.502298892,  -1.20000029,   5.92041874
    946, 0.00999083277,  -1.20000029,    5.8024354
    947, -0.482317209,  -1.20000029,   5.68445206
    948, -0.974625289,  -1.20000029,   5.56646872
    949,  -1.07413793,  -1.20000029,   5.93896532
    950,   -0.5782758,  -1.20000029,   6.05793095
    951, -0.0824137405,  -1.20000029,   6.17689657
    952,  0.413448334,  -1.20000029,    6.2958622
    953,    0.9093104,  -1.20000029,   6.41482782
    954,   1.40517247,  -1.20000029,   6.53379297
    955,   1.90103459,  -1.20000029,    6.6527586
    956,    2.3968966,  -1.20000029,   6.77172422
    957,   2.89275861,  -1.20000029,   6.89068985
    958,   3.38862085,  -1.20000029,     7.009655
    959,   3.88448286,  -1.20000029,   7.12862062
    960,   4.38034487,  -1.20000029,   7.24758625
    961,   4.87620687,  -1.20000029,   7.36655188
    962,   5.37206888,  -1.20000029,   7.48551702
    963,   5.86793089,  -1.20000029,   7.60448265
    964,   6.36379337,  -1.20000029,   7.72344828
    965,   6.85965538,  -1.20000029,    7.8424139
    966,   7.35551739,  -1.20000029,   7.96137953
    967,   7.85137939,  -1.20000029,   8.08034515
    968,    8.3472414,  -1.20000029,    8.1993103
    969,   8.84310341,  -1.20000029,   8.31827545
    970,   9.33896542,  -1.20000029,   8.43724155
    971,   9.83482742,  -1.20000029,    8.5562067
    972,   10.3306894,  -1.20000029,   8.67517281
    973,   10.8265514,  -1.20000029,   8.79413795
    974,   11.3224134,  -1.20000029,    8.9131031
    975,   11.8182755,  -1.20000029,   9.03206921
    976,   12.3141384,  -1.20000029,   9.15103436
    977,   13.3079491,  -1.20000029,   9.15205097
    978,   13.8058977,  -1.20000029,   9.03410244
    979,   14.3038464,  -1.20000029,   8.91615391
    980,    14.801795,  -1.20000029,   8.79820538
    981,   15.2997437,  -1.20000029,   8.68025684
    982,   15.7976923,  -1.20000029,   8.56230736
    983,   16.2956409,  -1.20000029,   8.44435883
    984,   16.7935905,  -1.20000029,   8.32641029
    985,   17.2915382,  -1.20000029,   8.20846176
    986,   17.7894878,  -1.20000029,   8.09051323
    987,   18.2874355,  -1.20000029,   7.97256422
    988,   18.7853851,  -1.20000029,   7.85461521
    989,   19.2833328,  -1.20000029,   7.73666668
    990,   19.7812824,  -1.20000029,   7.61871815
    991,   20.2792301,  -1.20000029,   7.50076914
    992,   20.7771797,  -1.20000029,   7.38282061
    993,   21.2751274,  -1.20000029,    7.2648716
    994,    21.773077,  -1.20000029,   7.14692307
    995,   22.2710266,  -1.20000029,   7.02897453
    996,   22.7689743,  -1.20000029,   6.91102552
    997,   23.2669239,  -1.20000029,   6.79307699
    998,   23.7648716,  -1.20000029,   6.67512846
    999,   24.2628212,  -1.20000029,   6.55717945
   1000,   24.7607689,  -1.20000029,   6.43923092
   1001,   25.2587185,  -1.20000029,   6.32128191
   1002,   25.7566662,  -1.20000029,   6.20333338
   1003,   26.2546158,  -1.20000029,   6.08538485
   1004,   26.7525635,  -1.20000029,   5.96743584
   1005,   27.2505131,  -1.20000029,    5.8494873
   1006,   27.7484608,  -1.20000029,    5.7315383
   1007,   28.2464104,  -1.20000029,   5.61358976
   1008,     28.74436,  -1.20000029,   5.49564123
   1009,   29.2423077,  -1.20000029,   5.37769222
   1010,   29.7402573,  -1.20000029,   5.25974369
   1011,    30.238205,  -1.20000029,   5.14179468
   1012,   30.7361546,  -1.20000029,   5.02384615
   1013,   31.2341022,  -1.20000029,   4.90589762
   1014,   31.7320518,  -1.20000029,   4.78794861
   1015,   31.3857117,  -1.20000029,   4.46998596
   1016,   30.8968773,  -1.20000029,   4.58577585
   1017,   30.4080429,  -1.20000029,   4.70156574
   1018,   29.9192085,  -1.20000029,   4.81735563
   1019,   29.4303741,  -1.20000029,   4.93314552
   1020,   28.9415379,  -1.20000029,   5.04893541
   1021,   28.4527035,  -1.20000029,    5.1647253
   1022,   27.9638691,  -1.20000029,   5.28051472
   1023,   27.4750347,  -1.20000029,   5.39630461
   1024,   26.9862003,  -1.20000029,    5.5120945
   1025,    26.497366,  -1.20000029,   5.62788439
   1026,   26.0085316,  -1.20000029,   5.74367428
   1027,   25.5196972,  -1.20000029,   5.85946417
   1028,   25.0308628,  -1.20000029,   5.97525406
   1029,   24.5420284,  -1.20000029,   6.09104395
   1030,    24.053194,  -1.20000029,   6.20683384
   1031,   23.5643597,  -1.20000029,   6.32262373
   1032,   23.0755253,  -1.20000029,   6.43841314
   1033,   22.5866909,  -1.20000029,   6.55420303
   1034,   22.0978565,  -1.20000029,   6.66999292
   1035,   21.6090202,  -1.20000029,   6.78578281
   1036,   21.1201859,  -1.20000029,    6.9015727
   1037,   20.6313515,  -1.20000029,   7.01736259
   1038,   20.1425171,  -1.20000029,   7.13315248
   1039,   19.6536827,  -1.20000029,   7.24894238
   1040,   19.1648483,  -1.20000029,   7.36473227
   1041,   18.6760139,  -1.20000029,   7.48052216
   1042,   18.1871796,  -1.20000029,   7.59631157
   1043,   17.6983452,  -1.20000029,   7.71210146
   1044,   17.2095108,  -1.20000029,   7.82789135
   1045,   16.7206764,  -1.20000029,   7.94368124
   1046,    16.231842,  -1.20000029,   8.05947113
   1047,   15.7430067,  -1.20000029,   8.17526054
   1048,   15.2541723,  -1.20000029,   8.29105091
   1049,   14.7653379,  -1.20000029,   8.40684032
   1050,   14.2765036,  -1.20000029,   8.52263069
   1051,   13.7876692,  -1.20000029,    8.6384201
   1052,   13.2988348,  -1.20000029,   8.75421047
   1053,    2.6400001,  -1.10000014,  0.459475845
   1054,   2.11199999,  -1.10000014, 2.09283826e-08
   1055,   1.58400011,  -1.10000014, 2.09283826e-08
   1056,   1.05600011,  -1.10000014, 2.09283826e-08
   1057,  0.528000057,  -1.10000014, 2.09283826e-08
   1058, -0.133357525,  -1.10000014,  0.495316893
   1059, -0.266715109,  -1.10000014,  0.990633726
   1060, -0.400072694,  -1.10000014,   1.48595059
   1061, -0.533430278,  -1.10000014,   1.98126745
   1062, -0.666787863,  -1.10000014,   2.47658443
   1063, -0.800145388,  -1.10000014,   2.97190118
   1064, -0.933502972,  -1.10000014,   3.46721816
   1065,  -1.06686056,  -1.10000014,    3.9625349
   1066,   -1.2002182,  -1.10000014,   4.45785189
   1067,  -1.33357573,  -1.10000014,   4.95316887
   1068, -0.974625289,  -1.10000014,   5.56646872
   1069, -0.482317209,  -1.10000014,   5.68445206
   1070, 0.00999083277,  -1.10000014,    5.8024354
   1071,  0.502298892,  -1.10000014,   5.92041874
   1072,  0.994606912,  -1.10000014,    6.0384016
   1073,   1.48691499,  -1.10000014,   6.15638494
   1074,   1.97922301,  -1.10000014,   6.27436829
   1075,   2.47153115,  -1.10000014,   6.39235163
   1076,   2.96383905,  -1.10000014,   6.51033497
   1077,   3.45614719,  -1.10000014,   6.62831831
   1078,    3.9484551,  -1.10000014,   6.74630117
   1079,   4.44076347,  -1.10000014,   6.86428452
   1080,   4.93307114,  -1.10000014,   6.98226786
   1081,   5.42537928,  -1.10000014,    7.1002512
   1082,   5.91768742,  -1.10000014,   7.21823454
   1083,   6.40999556,  -1.10000014,   7.33621788
   1084,    6.9023037,  -1.10000014,   7.45420074
   1085,   7.39461136,  -1.10000014,   7.57218409
   1086,    7.8869195,  -1.10000014,   7.69016743
   1087,   8.37922764,  -1.10000014,   7.80815077
   1088,    8.8715353,  -1.10000014,   7.92613411
   1089,   9.36384392,  -1.10000014,   8.04411697
   1090,   9.85615158,  -1.10000014,   8.16210079
   1091,   10.3484602,  -1.10000014,   8.28008366
   1092,   10.8407679,  -1.10000014,   8.39806652
   1093,   11.3330755,  -1.10000014,   8.51605034
   1094,   11.8253841,  -1.10000014,    8.6340332
   1095,   12.3176918,  -1.10000014,   8.75201702
   1096,   13.2988348,  -1.10000014,   8.75421047
   1097,   13.7876692,  -1.10000014,    8.6384201
   1098,   14.2765036,  -1.10000014,   8.52263069
   1099,   14.7653379,  -1.10000014,   8.40684032
   1100,   15.2541723,  -1.10000014,   8.29105091
   1101,   15.7430067,  -1.10000014,   8.17526054
   1102,    16.231842,  -1.10000014,   8.05947113
   1103,   16.7206764,  -1.10000014,   7.94368124
   1104,   17.2095108,  -1.10000014,   7.82789135
   1105,   17.6983452,  -1.10000014,   7.71210146
   1106,   18.1871796,  -1.10000014,   7.59631157
   1107,   18.6760139,  -1.10000014,   7.48052216
   1108,   19.1648483,  -1.10000014,   7.36473227
   1109,   19.6536827,  -1.10000014,   7.24894238
   1110,   20.1425171,  -1.10000014,   7.13315248
   1111,   20.6313515,  -1.10000014,   7.01736259
   1112,   21.1201859,  -1.10000014,    6.9015727
   1113,   21.6090202,  -1.10000014,   6.78578281
   1114,   22.0978565,  -1.10000014,   6.66999292
   1115,   22.5866909,  -1.10000014,   6.55420303
   1116,   23.0755253,  -1.10000014,   6.43841314
   1117,   23.5643597,  -1.10000014,   6.32262373
   1118,    24.053194,  -1.10000014,   6.20683384
   1119,   24.5420284,  -1.10000014,   6.09104395
   1120,   25.0308628,  -1.10000014,   5.97525406
   1121,   25.5196972,  -1.10000014,   5.85946417
   1122,   26.0085316,  -1.10000014,   5.74367428
   1123,    26.497366,  -1.10000014,   5.62788439
   1124,   26.9862003,  -1.10000014,    5.5120945
   1125,   27.4750347,  -1.10000014,   5.39630461
   1126,   27.9638691,  -1.10000014,   5.28051472
   1127,   28.4527035,  -1.10000014,    5.1647253
   1128,   28.9415379,  -1.10000014,   5.04893541
   1129,   29.4303741,  -1.10000014,   4.93314552
   1130,   29.9192085,  -1.10000014,   4.81735563
   1131,   30.4080429,  -1.10000014,   4.70156574
   1132,   30.8968773,  -1.10000014,   4.58577585
   1133,   31.3857117,  -1.10000014,   4.46998596
   1134,   31.4941959,  -1.10000014,   4.00925779
   1135,   31.1138458,  -1.10000014,   3.66431975
   1136,   30.7334976,  -1.10000014,   3.31938171
   1137,   30.3531475,  -1.10000014,   2.97444344
   1138,   29.9727974,  -1.10000014,    2.6295054
   1139,   29.5924473,  -1.10000014,   2.28456712
   1140,   29.2120972,  -1.10000014,   1.93962908
   1141,    28.831749,  -1.10000014,    1.5946908
   1142,   28.4513988,  -1.10000014,   1.24975264
   1143,   28.0710487,  -1.10000014,  0.904814541
   1144,   27.6906986,  -1.10000014,  0.559876382
   1145,   27.3103504,  -1.10000014,  0.214938194
   1146,   26.4936371,  -1.10000014, -0.329999983
   1147,    26.057272,  -1.10000014, -0.529999971
   1148,   25.6209087,  -1.10000014, -0.729999959
   1149,   25.1845455,  -1.10000014, -0.930000007
   1150,   24.7481823,  -1.10000014,        -1.13
   1151,   24.3118191,  -1.10000014,  -1.32999992
   1152,   23.8754539,  -1.10000014,  -1.52999997
   1153,   23.4390907,  -1.10000014,  -1.73000002
   1154,   23.0027275,  -1.10000014,  -1.92999995
   1155,   22.5663643,  -1.10000014,  -2.12999988
   1156,   22.2055359,  -1.10000014,  -1.86547697
   1157,   22.2810726,  -1.10000014,  -1.40095389
   1158,   22.3566093,  -1.10000014, -0.936430931
   1159,   22.4321442,  -1.10000014, -0.471907884
   1160,   22.5076809,  -1.10000014, -0.00738485297
   1161,   22.1299992,  -1.30000019,  -2.32999992
   1162,   22.2055359,  -1.50000024,  -1.86547697
   1163,   22.2810726,  -1.50000024,  -1.40095389
   1164,   22.3566093,  -1.50000024, -0.936430931
   1165,   22.4321442,  -1.50000024, -0.471907884
   1166,   22.5076809,  -1.50000024, -0.00738485297
   1167,   26.9300003,  -1.30000019,  -0.12999998
   1168,   26.4936371,  -1.50000024, -0.329999983
   1169,    26.057272,  -1.50000024, -0.529999971
   1170,   25.6209087,  -1.50000024, -0.729999959
   1171,   25.1845455,  -1.50000024, -0.930000007
   1172,   24.7481823,  -1.50000024,        -1.13
   1173,   24.3118191,  -1.50000024,  -1.32999992
   1174,   23.8754539,  -1.50000024,  -1.52999997
   1175,   23.4390907,  -1.50000024,  -1.73000002
   1176,   23.0027275,  -1.50000024,  -1.92999995
   1177,   22.5663643,  -1.50000024,  -2.12999988
   1178,   31.4941959,  -1.50000024,   4.00925779
   1179,   31.1138458,  -1.50000024,   3.66431975
   1180,   30.7334976,  -1.50000024,   3.31938171
   1181,   30.3531475,  -1.50000024,   2.97444344
   1182,   29.9727974,  -1.50000024,    2.6295054
   1183,   29.5924473,  -1.50000024,   2.28456712
   1184,   29.2120972,  -1.50000024,   1.93962908
   1185,    28.831749,  -1.50000024,    1.5946908
   1186,   28.4513988,  -1.50000024,   1.24975264
   1187,   28.0710487,  -1.50000024,  0.904814541
   1188,   27.6906986,  -1.50000024,  0.559876382
   1189,   27.3103504,  -1.50000024,  0.214938194
   1190, 5.46278898e-08,  -1.30000019, 2.09283826e-08
   1191, -0.133357525,  -1.50000024,  0.495316893
   1192, -0.266715109,  -1.50000024,  0.990633726
   1193, -0.400072694,  -1.50000024,   1.48595059
   1194, -0.533430278,  -1.50000024,   1.98126745
   1195, -0.666787863,  -1.50000024,   2.47658443
   1196, -0.800145388,  -1.50000024,   2.97190118
   1197, -0.933502972,  -1.50000024,   3.46721816
   1198,  -1.06686056,  -1.50000024,    3.9625349
   1199,   -1.2002182,  -1.50000024,   4.45785189
   1200,  -1.33357573,  -1.50000024,   4.95316887
   1201,    2.6400001,  -1.30000019, 2.09283826e-08
   1202,   2.11199999,  -1.50000024, 2.09283826e-08
   1203,   1.58400011,  -1.50000024, 2.09283826e-08
   1204,   1.05600011,  -1.50000024, 2.09283826e-08
   1205,  0.528000057,  -1.50000024, 2.09283826e-08
   1206,    2.6400001,  -1.50000024,  0.459475845
   1207,   22.1299992,  0.549999833,  -2.32999992
   1208,   22.1299992, -1.43051153e-07,  -2.32999992
   1209,   22.1299992, -0.550000131,  -2.32999992
   1210,    2.6400001, -0.550000131, 2.09283826e-08
   1211,    2.6400001, -1.43051153e-07, 2.09283826e-08
   1212,    2.6400001,  0.549999833, 2.09283826e-08
   1213, 5.46278898e-08, -0.550000131, 2.09283826e-08
   1214, 5.46278898e-08, -1.43051153e-07, 2.09283826e-08
   1215, 5.46278898e-08,  0.549999833, 2.09283826e-08
   1216,   31.8745461,  0.549999833,   4.35419607
   1217,   31.8745461, -1.43051153e-07,   4.35419607
   1218,   31.8745461, -0.550000131,   4.35419607
   1219,   26.9300003, -0.550000131,  -0.12999998
   1220,   26.9300003, -1.43051153e-07,  -0.12999998
   1221,   26.9300003,  0.549999833,  -0.12999998
   1222,   12.8100004,  0.549999833,   8.86999989
   1223,   12.8100004, -1.43051153e-07,   8.86999989
   1224,   12.8100004, -0.550000131,   8.86999989
   1225,  -1.46693325, -0.550000131,   5.44848537
   1226,  -1.46693325, -1.43051153e-07,   5.44848537
   1227,  -1.46693325,  0.549999833,   5.44848537
   1228,   22.5663643,    1.0999999,  -2.12999988
   1229,   23.0027275,    1.0999999,  -1.92999995
   1230,   23.4390907,    1.0999999,  -1.73000002
   1231,   23.8754539,    1.0999999,  -1.52999997
   1232,   24.3118191,    1.0999999,  -1.32999992
   1233,   24.7481823,    1.0999999,        -1.13
   1234,   25.1845455,    1.0999999, -0.930000007
   1235,   25.6209087,    1.0999999, -0.729999959
   1236,    26.057272,    1.0999999, -0.529999971
   1237,   26.4936371,    1.0999999, -0.329999983
   1238,   27.3103504,    1.0999999,  0.214938194
   1239,   27.6906986,    1.0999999,  0.559876382
   1240,   28.0710487,    1.0999999,  0.904814541
   1241,   28.4513988,    1.0999999,   1.24975264
   1242,    28.831749,    1.0999999,    1.5946908
   1243,   29.2120972,    1.0999999,   1.93962908
   1244,   29.5924473,    1.0999999,   2.28456712
   1245,   29.9727974,    1.0999999,    2.6295054
   1246,   30.3531475,    1.0999999,   2.97444344
   1247,   30.7334976,    1.0999999,   3.31938171
   1248,   31.1138458,    1.0999999,   3.66431975
   1249,   31.4941959,    1.0999999,   4.00925779
   1250,   31.3857117,    1.0999999,   4.46998596
   1251,   30.8968773,    1.0999999,   4.58577585
   1252,   30.4080429,    1.0999999,   4.70156574
   1253,   29.9192085,    1.0999999,   4.81735563
   1254,   29.4303741,    1.0999999,   4.93314552
   1255,   28.9415379,    1.0999999,   5.04893541
   1256,   28.4527035,    1.0999999,    5.1647253
   1257,   27.9638691,    1.0999999,   5.28051472
   1258,   27.4750347,    1.0999999,   5.39630461
   1259,   26.9862003,    1.0999999,    5.5120945
   1260,    26.497366,    1.0999999,   5.62788439
   1261,   26.0085316,    1.0999999,   5.74367428
   1262,   25.5196972,    1.0999999,   5.85946417
   1263,   25.0308628,    1.0999999,   5.97525406
   1264,   24.5420284,    1.0999999,   6.09104395
   1265,    24.053194,    1.0999999,   6.20683384
   1266,   23.5643597,    1.0999999,   6.32262373
   1267,   23.0755253,    1.0999999,   6.43841314
   1268,   22.5866909,    1.0999999,   6.55420303
   1269,   22.0978565,    1.0999999,   6.66999292
   1270,   21.6090202,    1.0999999,   6.78578281
   1271,   21.1201859,    1.0999999,    6.9015727
   1272,   20.6313515,    1.0999999,   7.01736259
   1273,   20.1425171,    1.0999999,   7.13315248
   1274,   19.6536827,    1.0999999,   7.24894238
   1275,   19.1648483,    1.0999999,   7.36473227
   1276,   18.6760139,    1.0999999,   7.48052216
   1277,   18.1871796,    1.0999999,   7.59631157
   1278,   17.6983452,    1.0999999,   7.71210146
   1279,   17.2095108,    1.0999999,   7.82789135
   1280,   16.7206764,    1.0999999,   7.94368124
   1281,    16.231842,    1.0999999,   8.05947113
   1282,   15.7430067,    1.0999999,   8.17526054
   1283,   15.2541723,    1.0999999,   8.29105091
   1284,   14.7653379,    1.0999999,   8.40684032
   1285,   14.2765036,    1.0999999,   8.52263069
   1286,   13.7876692,    1.0999999,    8.6384201
   1287,   13.2988348,    1.0999999,   8.75421047
   1288,   12.3176918,    1.0999999,   8.75201702
   1289,   11.8253841,    1.0999999,    8.6340332
   1290,   11.3330755,    1.0999999,   8.51605034
   1291,   10.8407679,    1.0999999,   8.39806652
   1292,   10.3484602,    1.0999999,   8.28008366
   1293,   9.85615158,    1.0999999,   8.16210079
   1294,   9.36384392,    1.0999999,   8.04411697
   1295,    8.8715353,    1.0999999,   7.92613411
   1296,   8.37922764,    1.0999999,   7.80815077
   1297,    7.8869195,    1.0999999,   7.69016743
   1298,   7.39461136,    1.0999999,   7.57218409
   1299,    6.9023037,    1.0999999,   7.45420074
   1300,   6.40999556,    1.0999999,   7.33621788
   1301,   5.91768742,    1.0999999,   7.21823454
   1302,   5.42537928,    1.0999999,    7.1002512
   1303,   4.93307114,    1.0999999,   6.98226786
   1304,   4.44076347,    1.0999999,   6.86428452
   1305,    3.9484551,    1.0999999,   6.74630117
   1306,   3.45614719,    1.0999999,   6.62831831
   1307,   2.96383905,    1.0999999,   6.51033497
   1308,   2.47153115,    1.0999999,   6.39235163
   1309,   1.97922301,    1.0999999,   6.27436829
   1310,   1.48691499,    1.0999999,   6.15638494
   1311,  0.994606912,    1.0999999,    6.0384016
   1312,  0.502298892,    1.0999999,   5.92041874
   1313, 0.00999083277,    1.0999999,    5.8024354
   1314, -0.482317209,    1.0999999,   5.68445206
   1315, -0.974625289,    1.0999999,   5.56646872
   1316,  -1.33357573,    1.0999999,   4.95316887
   1317,   -1.2002182,    1.0999999,   4.45785189
   1318,  -1.06686056,    1.0999999,    3.9625349
   1319, -0.933502972,    1.0999999,   3.46721816
   1320, -0.800145388,    1.0999999,   2.97190118
   1321, -0.666787863,    1.0999999,   2.47658443
   1322, -0.533430278,    1.0999999,   1.98126745
   1323, -0.400072694,    1.0999999,   1.48595059
   1324, -0.266715109,    1.0999999,  0.990633726
   1325, -0.133357525,    1.0999999,  0.495316893
   1326,  0.528000057,    1.0999999, 2.09283826e-08
   1327,   1.05600011,    1.0999999, 2.09283826e-08
   1328,   1.58400011,    1.0999999, 2.09283826e-08
   1329,   2.11199999,    1.0999999, 2.09283826e-08
   1330,    2.6400001,    1.0999999,  0.459475845
   1331,   22.5076809,    1.0999999, -0.00738485297
   1332,   22.4321442,    1.0999999, -0.471907884
   1333,   22.3566093,    1.0999999, -0.936430931
   1334,   22.2810726,    1.0999999,  -1.40095389
   1335,   22.2055359,    1.0999999,  -1.86547697
   1336,   22.5076809,   1.49999976, -0.00738485297
   1337,   22.4321442,   1.49999976, -0.471907884
   1338,   22.3566093,   1.49999976, -0.936430931
   1339,   22.2810726,   1.49999976,  -1.40095389
   1340,   22.2055359,   1.49999976,  -1.86547697
   1341,   22.1299992,   1.29999983,  -2.32999992
   1342,   22.5663643,   1.49999976,  -2.12999988
   1343,   23.0027275,   1.49999976,  -1.92999995
   1344,   23.4390907,   1.49999976,  -1.73000002
   1345,   23.8754539,   1.49999976,  -1.52999997
   1346,   24.3118191,   1.49999976,  -1.32999992
   1347,   24.7481823,   1.49999976,        -1.13
   1348,   25.1845455,   1.49999976, -0.930000007
   1349,   25.6209087,   1.49999976, -0.729999959
   1350,    26.057272,   1.49999976, -0.529999971
   1351,   26.4936371,   1.49999976, -0.329999983
   1352,   26.9300003,   1.29999983,  -0.12999998
   1353,   27.3103504,   1.49999976,  0.214938194
   1354,   27.6906986,   1.49999976,  0.559876382
   1355,   28.0710487,   1.49999976,  0.904814541
   1356,   28.4513988,   1.49999976,   1.24975264
   1357,    28.831749,   1.49999976,    1.5946908
   1358,   29.2120972,   1.49999976,   1.93962908
   1359,   29.5924473,   1.49999976,   2.28456712
   1360,   29.9727974,   1.49999976,    2.6295054
   1361,   30.3531475,   1.49999976,   2.97444344
   1362,   30.7334976,   1.49999976,   3.31938171
   1363,   31.1138458,   1.49999976,   3.66431975
   1364,   31.4941959,   1.49999976,   4.00925779
   1365,  -1.33357573,   1.49999976,   4.95316887
   1366,   -1.2002182,   1.49999976,   4.45785189
   1367,  -1.06686056,   1.49999976,    3.9625349
   1368, -0.933502972,   1.49999976,   3.46721816
   1369, -0.800145388,   1.49999976,   2.97190118
   1370, -0.666787863,   1.49999976,   2.47658443
   1371, -0.533430278,   1.49999976,   1.98126745
   1372, -0.400072694,   1.49999976,   1.48595059
   1373, -0.266715109,   1.49999976,  0.990633726
   1374, -0.133357525,   1.49999976,  0.495316893
   1375, 5.46278898e-08,   1.29999983, 2.09283826e-08
   1376,  0.528000057,   1.49999976, 2.09283826e-08
   1377,   1.05600011,   1.49999976, 2.09283826e-08
   1378,   1.58400011,   1.49999976, 2.09283826e-08
   1379,   2.11199999,   1.49999976, 2.09283826e-08
   1380,    2.6400001,   1.29999983, 2.09283826e-08
   1381,    2.6400001,   1.49999976,  0.459475845
   1382,   23.0271721,   1.29999983,     1.143453
   1383,   22.8329449,   1.29999983,   1.61564124
   1384,   22.6174908,   1.29999983,   2.07853055
   1385,   22.3812561,   1.29999983,   2.53116727
   1386,   22.1247292,   1.29999983,    2.9726193
   1387,   21.8484344,   1.29999983,   3.40197754
   1388,   21.5529442,   1.29999983,   3.81835699
   1389,   21.2388668,   1.29999983,   4.22090054
   1390,    20.906847,   1.29999983,   4.60877943
   1391,   20.5575714,   1.29999983,   4.98119354
   1392,   20.1917572,   1.29999983,   5.33737707
   1393,   19.8101578,   1.29999983,   5.67659521
   1394,   19.4135609,   1.29999983,   5.99815035
   1395,   19.0027828,   1.29999983,    6.3013792
   1396,   18.5786686,   1.29999983,   6.58565807
   1397,   18.1420937,   1.29999983,   6.85040045
   1398,   17.6939564,   1.29999983,   7.09506178
   1399,   17.2351799,   1.29999983,   7.31913805
   1400,   16.7667084,   1.29999983,   7.52216768
   1401,   16.2895069,   1.29999983,   7.70373201
   1402,   15.8045588,   1.29999983,   7.86345768
   1403,   15.3128633,   1.29999983,   8.00101566
   1404,   14.8154335,   1.29999983,   8.11612225
   1405,   14.3132925,   1.29999983,   8.20853996
   1406,   13.8074751,   1.29999983,   8.27807999
   1407,   13.2990236,   1.29999983,   8.32459736
   1408,   12.7889853,   1.29999983,   8.34799671
   1409,   12.2784109,   1.29999983,   8.34823132
   1410,   11.7683516,   1.29999983,   8.32529831
   1411,   11.2598581,   1.29999983,   8.27924728
   1412,   10.7539778,   1.29999983,   8.21017075
   1413,   10.2517519,   1.29999983,    8.1182127
   1414,   9.75421619,   1.29999983,   8.00356197
   1415,   9.26239491,   1.29999983,   7.86645508
   1416,   8.77730083,   1.29999983,   7.70717382
   1417,   8.29993343,   1.29999983,   7.52604628
   1418,   7.83127642,   1.29999983,   7.32344627
   1419,   7.37229443,   1.29999983,   7.09979057
   1420,   6.92393255,   1.29999983,    6.8555398
   1421,   6.48711491,   1.29999983,   6.59119749
   1422,   6.06274128,   1.29999983,   6.30730724
   1423,   5.65168571,   1.29999983,   6.00445461
   1424,   5.25479412,   1.29999983,    5.6832633
   1425,   4.87288523,   1.29999983,   5.34439468
   1426,   4.50674438,   1.29999983,   4.98854685
   1427,    4.1571269,   1.29999983,   4.61645269
   1428,   3.82475233,   1.29999983,    4.2288785
   1429,    3.5103054,   1.29999983,   3.82662272
   1430,   3.21443367,   1.29999983,   3.41051412
   1431,   2.93774676,   1.29999983,   2.98140931
   1432,   2.68081427,   1.29999983,   2.54019237
   1433,   2.44416571,   1.29999983,   2.08777237
   1434,   2.22828841,   1.29999983,    1.6250807
   1435,   23.0271721,  0.549999833,     1.143453
   1436,   22.8329449,  0.549999833,   1.61564124
   1437,   22.6174908,  0.549999833,   2.07853055
   1438,   22.3812561,  0.549999833,   2.53116727
   1439,   22.1247292,  0.549999833,    2.9726193
   1440,   21.8484344,  0.549999833,   3.40197754
   1441,   21.5529442,  0.549999833,   3.81835699
   1442,   21.2388668,  0.549999833,   4.22090054
   1443,    20.906847,  0.549999833,   4.60877943
   1444,   20.5575714,  0.549999833,   4.98119354
   1445,   20.1917572,  0.549999833,   5.33737707
   1446,   19.8101578,  0.549999833,   5.67659521
   1447,   19.4135609,  0.549999833,   5.99815035
   1448,   19.0027828,  0.549999833,    6.3013792
   1449,   18.5786686,  0.549999833,   6.58565807
   1450,   18.1420937,  0.549999833,   6.85040045
   1451,   17.6939564,  0.549999833,   7.09506178
   1452,   17.2351799,  0.549999833,   7.31913805
   1453,   16.7667084,  0.549999833,   7.52216768
   1454,   16.2895069,  0.549999833,   7.70373201
   1455,   15.8045588,  0.549999833,   7.86345768
   1456,   15.3128633,  0.549999833,   8.00101566
   1457,   14.8154335,  0.549999833,   8.11612225
   1458,   14.3132925,  0.549999833,   8.20853996
   1459,   13.8074751,  0.549999833,   8.27807999
   1460,   13.2990236,  0.549999833,   8.32459736
   1461,   12.7889853,  0.549999833,   8.34799671
   1462,   12.2784109,  0.549999833,   8.34823132
   1463,   11.7683516,  0.549999833,   8.32529831
   1464,   11.2598581,  0.549999833,   8.27924728
   1465,   10.7539778,  0.549999833,   8.21017075
   1466,   10.2517519,  0.549999833,    8.1182127
   1467,   9.75421619,  0.549999833,   8.00356197
   1468,   9.26239491,  0.549999833,   7.86645508
   1469,   8.77730083,  0.549999833,   7.70717382
   1470,   8.29993343,  0.549999833,   7.52604628
   1471,   7.83127642,  0.549999833,   7.32344627
   1472,   7.37229443,  0.549999833,   7.09979057
   1473,   6.92393255,  0.549999833,    6.8555398
   1474,   6.48711491,  0.549999833,   6.59119749
   1475,   6.06274128,  0.549999833,   6.30730724
   1476,   5.65168571,  0.549999833,   6.00445461
   1477,   5.25479412,  0.549999833,    5.6832633
   1478,   4.87288523,  0.549999833,   5.34439468
   1479,   4.50674438,  0.549999833,   4.98854685
   1480,    4.1571269,  0.549999833,   4.61645269
   1481,   3.82475233,  0.549999833,    4.2288785
   1482,    3.5103054,  0.549999833,   3.82662272
   1483,   3.21443367,  0.549999833,   3.41051412
   1484,   2.93774676,  0.549999833,   2.98140931
   1485,   2.68081427,  0.549999833,   2.54019237
   1486,   2.44416571,  0.549999833,   2.08777237
   1487,   2.22828841,  0.549999833,    1.6250807
   1488,   23.0271721, -1.88258127e-07,     1.143453
   1489,   22.8329449, -1.88258127e-07,   1.61564124
   1490,   22.6174908, -1.88258127e-07,   2.07853055
   1491,   22.3812561, -1.88258127e-07,   2.53116727
   1492,   22.1247292, -1.88258127e-07,    2.9726193
   1493,   21.8484344, -1.88258127e-07,   3.40197754
   1494,   21.5529442, -1.88258127e-07,   3.81835699
   1495,   21.2388668, -1.88258127e-07,   4.22090054
   1496,    20.906847, -1.88258127e-07,   4.60877943
   1497,   20.5575714, -1.88258127e-07,   4.98119354
   1498,   20.1917572, -1.88258127e-07,   5.33737707
   1499,   19.8101578, -1.88258127e-07,   5.67659521
   1500,   19.4135609, -1.88258127e-07,   5.99815035
   1501,   19.0027828, -1.88258127e-07,    6.3013792
   1502,   18.5786686, -1.88258127e-07,   6.58565807
   1503,   18.1420937, -1.88258127e-07,   6.85040045
   1504,   17.6939564, -1.88258127e-07,   7.09506178
   1505,   17.2351799, -1.88258127e-07,   7.31913805
   1506,   16.7667084, -1.88258127e-07,   7.52216768
   1507,   16.2895069, -1.88258127e-07,   7.70373201
   1508,   15.8045588, -1.88258127e-07,   7.86345768
   1509,   15.3128633, -1.88258127e-07,   8.00101566
   1510,   14.8154335, -1.88258127e-07,   8.11612225
   1511,   14.3132925, -1.88258127e-07,   8.20853996
   1512,   13.8074751, -1.88258127e-07,   8.27807999
   1513,   13.2990236, -1.88258127e-07,   8.32459736
   1514,   12.7889853, -1.88258127e-07,   8.34799671
   1515,   12.2784109, -1.88258127e-07,   8.34823132
   1516,   11.7683516, -1.88258127e-07,   8.32529831
   1517,   11.2598581, -1.88258127e-07,   8.27924728
   1518,   10.7539778, -1.88258127e-07,   8.21017075
   1519,   10.2517519, -1.88258127e-07,    8.1182127
   1520,   9.75421619, -1.88258127e-07,   8.00356197
   1521,   9.26239491, -1.88258127e-07,   7.86645508
   1522,   8.77730083, -1.88258127e-07,   7.70717382
   1523,   8.29993343, -1.88258127e-07,   7.52604628
   1524,   7.83127642, -1.88258127e-07,   7.32344627
   1525,   7.37229443, -1.88258127e-07,   7.09979057
   1526,   6.92393255, -1.88258127e-07,    6.8555398
   1527,   6.48711491, -1.88258127e-07,   6.59119749
   1528,   6.06274128, -1.88258127e-07,   6.30730724
   1529,   5.65168571, -1.88258127e-07,   6.00445461
   1530,   5.25479412, -1.88258127e-07,    5.6832633
   1531,   4.87288523, -1.88258127e-07,   5.34439468
   1532,   4.50674438, -1.88258127e-07,   4.98854685
   1533,    4.1571269, -1.88258127e-07,   4.61645269
   1534,   3.82475233, -1.88258127e-07,    4.2288785
   1535,    3.5103054, -1.88258127e-07,   3.82662272
   1536,   3.21443367, -1.88258127e-07,   3.41051412
   1537,   2.93774676, -1.88258127e-07,   2.98140931
   1538,   2.68081427, -1.88258127e-07,   2.54019237
   1539,   2.44416571, -1.88258127e-07,   2.08777237
   1540,   2.22828841, -1.88258127e-07,    1.6250807
   1541,   23.0271721, -0.550000191,     1.143453
   1542,   22.8329449, -0.550000191,   1.61564124
   1543,   22.6174908, -0.550000191,   2.07853055
   1544,   22.3812561, -0.550000191,   2.53116727
   1545,   22.1247292, -0.550000191,    2.9726193
   1546,   21.8484344, -0.550000191,   3.40197754
   1547,   21.5529442, -0.550000191,   3.81835699
   1548,   21.2388668, -0.550000191,   4.22090054
   1549,    20.906847, -0.550000191,   4.60877943
   1550,   20.5575714, -0.550000191,   4.98119354
   1551,   20.1917572, -0.550000191,   5.33737707
   1552,   19.8101578, -0.550000191,   5.67659521
   1553,   19.4135609, -0.550000191,   5.99815035
   1554,   19.0027828, -0.550000191,    6.3013792
   1555,   18.5786686, -0.550000191,   6.58565807
   1556,   18.1420937, -0.550000191,   6.85040045
   1557,   17.6939564, -0.550000191,   7.09506178
   1558,   17.2351799, -0.550000191,   7.31913805
   1559,   16.7667084, -0.550000191,   7.52216768
   1560,   16.2895069, -0.550000191,   7.70373201
   1561,   15.8045588, -0.550000191,   7.86345768
   1562,   15.3128633, -0.550000191,   8.00101566
   1563,   14.8154335, -0.550000191,   8.11612225
   1564,   14.3132925, -0.550000191,   8.20853996
   1565,   13.8074751, -0.550000191,   8.27807999
   1566,   13.2990236, -0.550000191,   8.32459736
   1567,   12.7889853, -0.550000191,   8.34799671
   1568,   12.2784109, -0.550000191,   8.34823132
   1569,   11.7683516, -0.550000191,   8.32529831
   1570,   11.2598581, -0.550000191,   8.27924728
   1571,   10.7539778, -0.550000191,   8.21017075
   1572,   10.2517519, -0.550000191,    8.1182127
   1573,   9.75421619, -0.550000191,   8.00356197
   1574,   9.26239491, -0.550000191,   7.86645508
   1575,   8.77730083, -0.550000191,   7.70717382
   1576,   8.29993343, -0.550000191,   7.52604628
   1577,   7.83127642, -0.550000191,   7.32344627
   1578,   7.37229443, -0.550000191,   7.09979057
   1579,   6.92393255, -0.550000191,    6.8555398
   1580,   6.48711491, -0.550000191,   6.59119749
   1581,   6.06274128, -0.550000191,   6.30730724
   1582,   5.65168571, -0.550000191,   6.00445461
   1583,   5.25479412, -0.550000191,    5.6832633
   1584,   4.87288523, -0.550000191,   5.34439468
   1585,   4.50674438, -0.550000191,   4.98854685
   1586,    4.1571269, -0.550000191,   4.61645269
   1587,   3.82475233, -0.550000191,    4.2288785
   1588,    3.5103054, -0.550000191,   3.82662272
   1589,   3.21443367, -0.550000191,   3.41051412
   1590,   2.93774676, -0.550000191,   2.98140931
   1591,   2.68081427, -0.550000191,   2.54019237
   1592,   2.44416571, -0.550000191,   2.08777237
   1593,   2.22828841, -0.550000191,    1.6250807
   1594,   23.0271721,  -1.30000019,     1.143453
   1595,   22.8329449,  -1.30000019,   1.61564124
   1596,   22.6174908,  -1.30000019,   2.07853055
   1597,   22.3812561,  -1.30000019,   2.53116727
   1598,   22.1247292,  -1.30000019,    2.9726193
   1599,   21.8484344,  -1.30000019,   3.40197754
   1600,   21.5529442,  -1.30000019,   3.81835699
   1601,   21.2388668,  -1.30000019,   4.22090054
   1602,    20.906847,  -1.30000019,   4.60877943
   1603,   20.5575714,  -1.30000019,   4.98119354
   1604,   20.1917572,  -1.30000019,   5.33737707
   1605,   19.8101578,  -1.30000019,   5.67659521
   1606,   19.4135609,  -1.30000019,   5.99815035
   1607,   19.0027828,  -1.30000019,    6.3013792
   1608,   18.5786686,  -1.30000019,   6.58565807
   1609,   18.1420937,  -1.30000019,   6.85040045
   1610,   17.6939564,  -1.30000019,   7.09506178
   1611,   17.2351799,  -1.30000019,   7.31913805
   1612,   16.7667084,  -1.30000019,   7.52216768
   1613,   16.2895069,  -1.30000019,   7.70373201
   1614,   15.8045588,  -1.30000019,   7.86345768
   1615,   15.3128633,  -1.30000019,   8.00101566
   1616,   14.8154335,  -1.30000019,   8.11612225
   1617,   14.3132925,  -1.30000019,   8.20853996
   1618,   13.8074751,  -1.30000019,   8.27807999
   1619,   13.2990236,  -1.30000019,   8.32459736
   1620,   12.7889853,  -1.30000019,   8.34799671
   1621,   12.2784109,  -1.30000019,   8.34823132
   1622,   11.7683516,  -1.30000019,   8.32529831
   1623,   11.2598581,  -1.30000019,   8.27924728
   1624,   10.7539778,  -1.30000019,   8.21017075
   1625,   10.2517519,  -1.30000019,    8.1182127
   1626,   9.75421619,  -1.30000019,   8.00356197
   1627,   9.26239491,  -1.30000019,   7.86645508
   1628,   8.77730083,  -1.30000019,   7.70717382
   1629,   8.29993343,  -1.30000019,   7.52604628
   1630,   7.83127642,  -1.30000019,   7.32344627
   1631,   7.37229443,  -1.30000019,   7.09979057
   1632,   6.92393255,  -1.30000019,    6.8555398
   1633,   6.48711491,  -1.30000019,   6.59119749
   1634,   6.06274128,  -1.30000019,   6.30730724
   1635,   5.65168571,  -1.30000019,   6.00445461
   1636,   5.25479412,  -1.30000019,    5.6832633
   1637,   4.87288523,  -1.30000019,   5.34439468
   1638,   4.50674438,  -1.30000019,   4.98854685
   1639,    4.1571269,  -1.30000019,   4.61645269
   1640,   3.82475233,  -1.30000019,    4.2288785
   1641,    3.5103054,  -1.30000019,   3.82662272
   1642,   3.21443367,  -1.30000019,   3.41051412
   1643,   2.93774676,  -1.30000019,   2.98140931
   1644,   2.68081427,  -1.30000019,   2.54019237
   1645,   2.44416571,  -1.30000019,   2.08777237
   1646,   2.22828841,  -1.30000019,    1.6250807
   1647,   22.8871918,   1.29999983,   1.08955383
   1648,   22.6955528,   1.29999983,   1.55544615
   1649,   22.4829712,   1.29999983,   2.01216364
   1650,   22.2498875,   1.29999983,   2.45876527
   1651,   21.9967804,   1.29999983,   2.89433122
   1652,   21.7241707,   1.29999983,   3.31796455
   1653,   21.4326191,   1.29999983,   3.72879243
   1654,   21.1227283,   1.29999983,   4.12596893
   1655,   20.7951374,   1.29999983,   4.50867558
   1656,   20.4505177,   1.29999983,   4.87612438
   1657,   20.0895805,   1.29999983,   5.22755861
   1658,   19.7130699,   1.29999983,   5.56225395
   1659,   19.3217602,   1.29999983,   5.87952185
   1660,     18.91646,   1.29999983,    6.1787076
   1661,   18.4980011,   1.29999983,   6.45919609
   1662,   18.0672474,   1.29999983,   6.72040892
   1663,   17.6250839,   1.29999983,    6.9618082
   1664,   17.1724243,   1.29999983,   7.18289661
   1665,   16.7101994,   1.29999983,   7.38321877
   1666,   16.2393608,   1.29999983,   7.56236267
   1667,   15.7608786,   1.29999983,   7.71995831
   1668,   15.2757397,   1.29999983,   7.85568237
   1669,   14.7849417,   1.29999983,   7.96925402
   1670,   14.2894955,   1.29999983,   8.06044006
   1671,   13.7904224,   1.29999983,   8.12905216
   1672,   13.2887506,   1.29999983,   8.17494965
   1673,   12.7855129,   1.29999983,   8.19803715
   1674,   12.2817459,   1.29999983,   8.19826794
   1675,   11.7784872,   1.29999983,   8.17564106
   1676,   11.2767735,   1.29999983,   8.13020325
   1677,   10.7776384,   1.29999983,   8.06204891
   1678,   10.2821093,   1.29999983,   7.97131681
   1679,   9.79120731,   1.29999983,   7.85819483
   1680,   9.30594349,   1.29999983,   7.72291565
   1681,   8.82731819,   1.29999983,   7.56575823
   1682,   8.35631561,   1.29999983,   7.38704586
   1683,   7.89390659,   1.29999983,   7.18714714
   1684,   7.44104433,   1.29999983,   6.96647358
   1685,   6.99866104,   1.29999983,    6.7254796
   1686,   6.56766748,   1.29999983,    6.4646616
   1687,   6.14895201,   1.29999983,   6.18455696
   1688,   5.74337673,   1.29999983,   5.88574219
   1689,   5.35177755,   1.29999983,   5.56883335
   1690,   4.97496033,   1.29999983,   5.23448324
   1691,   4.61370182,   1.29999983,   4.88337994
   1692,    4.2687459,   1.29999983,    4.5162468
   1693,   3.94080305,   1.29999983,   4.13384008
   1694,   3.63054872,   1.29999983,   3.73694801
   1695,   3.33862185,   1.29999983,   3.32638741
   1696,     3.065624,   1.29999983,   2.90300393
   1697,   2.81211734,   1.29999983,   2.46766996
   1698,   2.57862401,   1.29999983,    2.0212822
   1699,   2.36562514,   1.29999983,   1.56475973
   1700,   22.8871918,   1.09999979,   1.08955383
   1701,   22.6955528,   1.09999979,   1.55544615
   1702,   22.4829712,   1.09999979,   2.01216364
   1703,   22.2498875,   1.09999979,   2.45876527
   1704,   21.9967804,   1.09999979,   2.89433122
   1705,   21.7241707,   1.09999979,   3.31796455
   1706,   21.4326191,   1.09999979,   3.72879243
   1707,   21.1227283,   1.09999979,   4.12596893
   1708,   20.7951374,   1.09999979,   4.50867558
   1709,   20.4505177,   1.09999979,   4.87612438
   1710,   20.0895805,   1.09999979,   5.22755861
   1711,   19.7130699,   1.09999979,   5.56225395
   1712,   19.3217602,   1.09999979,   5.87952185
   1713,     18.91646,   1.09999979,    6.1787076
   1714,   18.4980011,   1.09999979,   6.45919609
   1715,   18.0672474,   1.09999979,   6.72040892
   1716,   17.6250839,   1.09999979,    6.9618082
   1717,   17.1724243,   1.09999979,   7.18289661
   1718,   16.7101994,   1.09999979,   7.38321877
   1719,   16.2393608,   1.09999979,   7.56236267
   1720,   15.7608786,   1.09999979,   7.71995831
   1721,   15.2757397,   1.09999979,   7.85568237
   1722,   14.7849417,   1.09999979,   7.96925402
   1723,   14.2894955,   1.09999979,   8.06044006
   1724,   13.7904224,   1.09999979,   8.12905216
   1725,   13.2887506,   1.09999979,   8.17494965
   1726,   12.7855129,   1.09999979,   8.19803715
   1727,   12.2817459,   1.09999979,   8.19826794
   1728,   11.7784872,   1.09999979,   8.17564106
   1729,   11.2767735,   1.09999979,   8.13020325
   1730,   10.7776384,   1.09999979,   8.06204891
   1731,   10.2821093,   1.09999979,   7.97131681
   1732,   9.79120731,   1.09999979,   7.85819483
   1733,   9.30594349,   1.09999979,   7.72291565
   1734,   8.82731819,   1.09999979,   7.56575823
   1735,   8.35631561,   1.09999979,   7.38704586
   1736,   7.89390659,   1.09999979,   7.18714714
   1737,   7.44104433,   1.09999979,   6.96647358
   1738,   6.99866104,   1.09999979,    6.7254796
   1739,   6.56766748,   1.09999979,    6.4646616
   1740,   6.14895201,   1.09999979,   6.18455696
   1741,   5.74337673,   1.09999979,   5.88574219
   1742,   5.35177755,   1.09999979,   5.56883335
   1743,   4.97496033,   1.09999979,   5.23448324
   1744,   4.61370182,   1.09999979,   4.88337994
   1745,    4.2687459,   1.09999979,    4.5162468
   1746,   3.94080305,   1.09999979,   4.13384008
   1747,   3.63054872,   1.09999979,   3.73694801
   1748,   3.33862185,   1.09999979,   3.32638741
   1749,     3.065624,   1.09999979,   2.90300393
   1750,   2.81211734,   1.09999979,   2.46766996
   1751,   2.57862401,   1.09999979,    2.0212822
   1752,   2.36562514,   1.09999979,   1.56475973
   1753,   22.8871918,  0.549999833,   1.08955383
   1754,   22.6955528,  0.549999833,   1.55544615
   1755,   22.4829712,  0.549999833,   2.01216364
   1756,   22.2498875,  0.549999833,   2.45876527
   1757,   21.9967804,  0.549999833,   2.89433122
   1758,   21.7241707,  0.549999833,   3.31796455
   1759,   21.4326191,  0.549999833,   3.72879243
   1760,   21.1227283,  0.549999833,   4.12596893
   1761,   20.7951374,  0.549999833,   4.50867558
   1762,   20.4505177,  0.549999833,   4.87612438
   1763,   20.0895805,  0.549999833,   5.22755861
   1764,   19.7130699,  0.549999833,   5.56225395
   1765,   19.3217602,  0.549999833,   5.87952185
   1766,     18.91646,  0.549999833,    6.1787076
   1767,   18.4980011,  0.549999833,   6.45919609
   1768,   18.0672474,  0.549999833,   6.72040892
   1769,   17.6250839,  0.549999833,    6.9618082
   1770,   17.1724243,  0.549999833,   7.18289661
   1771,   16.7101994,  0.549999833,   7.38321877
   1772,   16.2393608,  0.549999833,   7.56236267
   1773,   15.7608786,  0.549999833,   7.71995831
   1774,   15.2757397,  0.549999833,   7.85568237
   1775,   14.7849417,  0.549999833,   7.96925402
   1776,   14.2894955,  0.549999833,   8.06044006
   1777,   13.7904224,  0.549999833,   8.12905216
   1778,   13.2887506,  0.549999833,   8.17494965
   1779,   12.7855129,  0.549999833,   8.19803715
   1780,   12.2817459,  0.549999833,   8.19826794
   1781,   11.7784872,  0.549999833,   8.17564106
   1782,   11.2767735,  0.549999833,   8.13020325
   1783,   10.7776384,  0.549999833,   8.06204891
   1784,   10.2821093,  0.549999833,   7.97131681
   1785,   9.79120731,  0.549999833,   7.85819483
   1786,   9.30594349,  0.549999833,   7.72291565
   1787,   8.82731819,  0.549999833,   7.56575823
   1788,   8.35631561,  0.549999833,   7.38704586
   1789,   7.89390659,  0.549999833,   7.18714714
   1790,   7.44104433,  0.549999833,   6.96647358
   1791,   6.99866104,  0.549999833,    6.7254796
   1792,   6.56766748,  0.549999833,    6.4646616
   1793,   6.14895201,  0.549999833,   6.18455696
   1794,   5.74337673,  0.549999833,   5.88574219
   1795,   5.35177755,  0.549999833,   5.56883335
   1796,   4.97496033,  0.549999833,   5.23448324
   1797,   4.61370182,  0.549999833,   4.88337994
   1798,    4.2687459,  0.549999833,    4.5162468
   1799,   3.94080305,  0.549999833,   4.13384008
   1800,   3.63054872,  0.549999833,   3.73694801
   1801,   3.33862185,  0.549999833,   3.32638741
   1802,     3.065624,  0.549999833,   2.90300393
   1803,   2.81211734,  0.549999833,   2.46766996
   1804,   2.57862401,  0.549999833,    2.0212822
   1805,   2.36562514,  0.549999833,   1.56475973
   1806,   22.8871918, -1.88258127e-07,   1.08955383
   1807,   22.6955528, -1.88258127e-07,   1.55544615
   1808,   22.4829712, -1.88258127e-07,   2.01216364
   1809,   22.2498875, -1.88258127e-07,   2.45876527
   1810,   21.9967804, -1.88258127e-07,   2.89433122
   1811,   21.7241707, -1.88258127e-07,   3.31796455
   1812,   21.4326191, -1.88258127e-07,   3.72879243
   1813,   21.1227283, -1.88258127e-07,   4.12596893
   1814,   20.7951374, -1.88258127e-07,   4.50867558
   1815,   20.4505177, -1.88258127e-07,   4.87612438
   1816,   20.0895805, -1.88258127e-07,   5.22755861
   1817,   19.7130699, -1.88258127e-07,   5.56225395
   1818,   19.3217602, -1.88258127e-07,   5.87952185
   1819,     18.91646, -1.88258127e-07,    6.1787076
   1820,   18.4980011, -1.88258127e-07,   6.45919609
   1821,   18.0672474, -1.88258127e-07,   6.72040892
   1822,   17.6250839, -1.88258127e-07,    6.9618082
   1823,   17.1724243, -1.88258127e-07,   7.18289661
   1824,   16.7101994, -1.88258127e-07,   7.38321877
   1825,   16.2393608, -1.88258127e-07,   7.56236267
   1826,   15.7608786, -1.88258127e-07,   7.71995831
   1827,   15.2757397, -1.88258127e-07,   7.85568237
   1828,   14.7849417, -1.88258127e-07,   7.96925402
   1829,   14.2894955, -1.88258127e-07,   8.06044006
   1830,   13.7904224, -1.88258127e-07,   8.12905216
   1831,   13.2887506, -1.88258127e-07,   8.17494965
   1832,   12.7855129, -1.88258127e-07,   8.19803715
   1833,   12.2817459, -1.88258127e-07,   8.19826794
   1834,   11.7784872, -1.88258127e-07,   8.17564106
   1835,   11.2767735, -1.88258127e-07,   8.13020325
   1836,   10.7776384, -1.88258127e-07,   8.06204891
   1837,   10.2821093, -1.88258127e-07,   7.97131681
   1838,   9.79120731, -1.88258127e-07,   7.85819483
   1839,   9.30594349, -1.88258127e-07,   7.72291565
   1840,   8.82731819, -1.88258127e-07,   7.56575823
   1841,   8.35631561, -1.88258127e-07,   7.38704586
   1842,   7.89390659, -1.88258127e-07,   7.18714714
   1843,   7.44104433, -1.88258127e-07,   6.96647358
   1844,   6.99866104, -1.88258127e-07,    6.7254796
   1845,   6.56766748, -1.88258127e-07,    6.4646616
   1846,   6.14895201, -1.88258127e-07,   6.18455696
   1847,   5.74337673, -1.88258127e-07,   5.88574219
   1848,   5.35177755, -1.88258127e-07,   5.56883335
   1849,   4.97496033, -1.88258127e-07,   5.23448324
   1850,   4.61370182, -1.88258127e-07,   4.88337994
   1851,    4.2687459, -1.88258127e-07,    4.5162468
   1852,   3.94080305, -1.88258127e-07,   4.13384008
   1853,   3.63054872, -1.88258127e-07,   3.73694801
   1854,   3.33862185, -1.88258127e-07,   3.32638741
   1855,     3.065624, -1.88258127e-07,   2.90300393
   1856,   2.81211734, -1.88258127e-07,   2.46766996
   1857,   2.57862401, -1.88258127e-07,    2.0212822
   1858,   2.36562514, -1.88258127e-07,   1.56475973
   1859,   22.8871918, -0.550000191,   1.08955383
   1860,   22.6955528, -0.550000191,   1.55544615
   1861,   22.4829712, -0.550000191,   2.01216364
   1862,   22.2498875, -0.550000191,   2.45876527
   1863,   21.9967804, -0.550000191,   2.89433122
   1864,   21.7241707, -0.550000191,   3.31796455
   1865,   21.4326191, -0.550000191,   3.72879243
   1866,   21.1227283, -0.550000191,   4.12596893
   1867,   20.7951374, -0.550000191,   4.50867558
   1868,   20.4505177, -0.550000191,   4.87612438
   1869,   20.0895805, -0.550000191,   5.22755861
   1870,   19.7130699, -0.550000191,   5.56225395
   1871,   19.3217602, -0.550000191,   5.87952185
   1872,     18.91646, -0.550000191,    6.1787076
   1873,   18.4980011, -0.550000191,   6.45919609
   1874,   18.0672474, -0.550000191,   6.72040892
   1875,   17.6250839, -0.550000191,    6.9618082
   1876,   17.1724243, -0.550000191,   7.18289661
   1877,   16.7101994, -0.550000191,   7.38321877
   1878,   16.2393608, -0.550000191,   7.56236267
   1879,   15.7608786, -0.550000191,   7.71995831
   1880,   15.2757397, -0.550000191,   7.85568237
   1881,   14.7849417, -0.550000191,   7.96925402
   1882,   14.2894955, -0.550000191,   8.06044006
   1883,   13.7904224, -0.550000191,   8.12905216
   1884,   13.2887506, -0.550000191,   8.17494965
   1885,   12.7855129, -0.550000191,   8.19803715
   1886,   12.2817459, -0.550000191,   8.19826794
   1887,   11.7784872, -0.550000191,   8.17564106
   1888,   11.2767735, -0.550000191,   8.13020325
   1889,   10.7776384, -0.550000191,   8.06204891
   1890,   10.2821093, -0.550000191,   7.97131681
   1891,   9.79120731, -0.550000191,   7.85819483
   1892,   9.30594349, -0.550000191,   7.72291565
   1893,   8.82731819, -0.550000191,   7.56575823
   1894,   8.35631561, -0.550000191,   7.38704586
   1895,   7.89390659, -0.550000191,   7.18714714
   1896,   7.44104433, -0.550000191,   6.96647358
   1897,   6.99866104, -0.550000191,    6.7254796
   1898,   6.56766748, -0.550000191,    6.4646616
   1899,   6.14895201, -0.550000191,   6.18455696
   1900,   5.74337673, -0.550000191,   5.88574219
   1901,   5.35177755, -0.550000191,   5.56883335
   1902,   4.97496033, -0.550000191,   5.23448324
   1903,   4.61370182, -0.550000191,   4.88337994
   1904,    4.2687459, -0.550000191,    4.5162468
   1905,   3.94080305, -0.550000191,   4.13384008
   1906,   3.63054872, -0.550000191,   3.73694801
   1907,   3.33862185, -0.550000191,   3.32638741
   1908,     3.065624, -0.550000191,   2.90300393
   1909,   2.81211734, -0.550000191,   2.46766996
   1910,   2.57862401, -0.550000191,    2.0212822
   1911,   2.36562514, -0.550000191,   1.56475973
   1912,   22.8871918,  -1.10000014,   1.08955383
   1913,   22.6955528,  -1.10000014,   1.55544615
   1914,   22.4829712,  -1.10000014,   2.01216364
   1915,   22.2498875,  -1.10000014,   2.45876527
   1916,   21.9967804,  -1.10000014,   2.89433122
   1917,   21.7241707,  -1.10000014,   3.31796455
   1918,   21.4326191,  -1.10000014,   3.72879243
   1919,   21.1227283,  -1.10000014,   4.12596893
   1920,   20.7951374,  -1.10000014,   4.50867558
   1921,   20.4505177,  -1.10000014,   4.87612438
   1922,   20.0895805,  -1.10000014,   5.22755861
   1923,   19.7130699,  -1.10000014,   5.56225395
   1924,   19.3217602,  -1.10000014,   5.87952185
   1925,     18.91646,  -1.10000014,    6.1787076
   1926,   18.4980011,  -1.10000014,   6.45919609
   1927,   18.0672474,  -1.10000014,   6.72040892
   1928,   17.6250839,  -1.10000014,    6.9618082
   1929,   17.1724243,  -1.10000014,   7.18289661
   1930,   16.7101994,  -1.10000014,   7.38321877
   1931,   16.2393608,  -1.10000014,   7.56236267
   1932,   15.7608786,  -1.10000014,   7.71995831
   1933,   15.2757397,  -1.10000014,   7.85568237
   1934,   14.7849417,  -1.10000014,   7.96925402
   1935,   14.2894955,  -1.10000014,   8.06044006
   1936,   13.7904224,  -1.10000014,   8.12905216
   1937,   13.2887506,  -1.10000014,   8.17494965
   1938,   12.7855129,  -1.10000014,   8.19803715
   1939,   12.2817459,  -1.10000014,   8.19826794
   1940,   11.7784872,  -1.10000014,   8.17564106
   1941,   11.2767735,  -1.10000014,   8.13020325
   1942,   10.7776384,  -1.10000014,   8.06204891
   1943,   10.2821093,  -1.10000014,   7.97131681
   1944,   9.79120731,  -1.10000014,   7.85819483
   1945,   9.30594349,  -1.10000014,   7.72291565
   1946,   8.82731819,  -1.10000014,   7.56575823
   1947,   8.35631561,  -1.10000014,   7.38704586
   1948,   7.89390659,  -1.10000014,   7.18714714
   1949,   7.44104433,  -1.10000014,   6.96647358
   1950,   6.99866104,  -1.10000014,    6.7254796
   1951,   6.56766748,  -1.10000014,    6.4646616
   1952,   6.14895201,  -1.10000014,   6.18455696
   1953,   5.74337673,  -1.10000014,   5.88574219
   1954,   5.35177755,  -1.10000014,   5.56883335
   1955,   4.97496033,  -1.10000014,   5.23448324
   1956,   4.61370182,  -1.10000014,   4.88337994
   1957,    4.2687459,  -1.10000014,    4.5162468
   1958,   3.94080305,  -1.10000014,   4.13384008
   1959,   3.63054872,  -1.10000014,   3.73694801
   1960,   3.33862185,  -1.10000014,   3.32638741
   1961,     3.065624,  -1.10000014,   2.90300393
   1962,   2.81211734,  -1.10000014,   2.46766996
   1963,   2.57862401,  -1.10000014,    2.0212822
   1964,   2.36562514,  -1.10000014,   1.56475973
   1965,   22.8871918,  -1.30000019,   1.08955383
   1966,   22.6955528,  -1.30000019,   1.55544615
   1967,   22.4829712,  -1.30000019,   2.01216364
   1968,   22.2498875,  -1.30000019,   2.45876527
   1969,   21.9967804,  -1.30000019,   2.89433122
   1970,   21.7241707,  -1.30000019,   3.31796455
   1971,   21.4326191,  -1.30000019,   3.72879243
   1972,   21.1227283,  -1.30000019,   4.12596893
   1973,   20.7951374,  -1.30000019,   4.50867558
   1974,   20.4505177,  -1.30000019,   4.87612438
   1975,   20.0895805,  -1.30000019,   5.22755861
   1976,   19.7130699,  -1.30000019,   5.56225395
   1977,   19.3217602,  -1.30000019,   5.87952185
   1978,     18.91646,  -1.30000019,    6.1787076
   1979,   18.4980011,  -1.30000019,   6.45919609
   1980,   18.0672474,  -1.30000019,   6.72040892
   1981,   17.6250839,  -1.30000019,    6.9618082
   1982,   17.1724243,  -1.30000019,   7.18289661
   1983,   16.7101994,  -1.30000019,   7.38321877
   1984,   16.2393608,  -1.30000019,   7.56236267
   1985,   15.7608786,  -1.30000019,   7.71995831
   1986,   15.2757397,  -1.30000019,   7.85568237
   1987,   14.7849417,  -1.30000019,   7.96925402
   1988,   14.2894955,  -1.30000019,   8.06044006
   1989,   13.7904224,  -1.30000019,   8.12905216
   1990,   13.2887506,  -1.30000019,   8.17494965
   1991,   12.7855129,  -1.30000019,   8.19803715
   1992,   12.2817459,  -1.30000019,   8.19826794
   1993,   11.7784872,  -1.30000019,   8.17564106
   1994,   11.2767735,  -1.30000019,   8.13020325
   1995,   10.7776384,  -1.30000019,   8.06204891
   1996,   10.2821093,  -1.30000019,   7.97131681
   1997,   9.79120731,  -1.30000019,   7.85819483
   1998,   9.30594349,  -1.30000019,   7.72291565
   1999,   8.82731819,  -1.30000019,   7.56575823
   2000,   8.35631561,  -1.30000019,   7.38704586
   2001,   7.89390659,  -1.30000019,   7.18714714
   2002,   7.44104433,  -1.30000019,   6.96647358
   2003,   6.99866104,  -1.30000019,    6.7254796
   2004,   6.56766748,  -1.30000019,    6.4646616
   2005,   6.14895201,  -1.30000019,   6.18455696
   2006,   5.74337673,  -1.30000019,   5.88574219
   2007,   5.35177755,  -1.30000019,   5.56883335
   2008,   4.97496033,  -1.30000019,   5.23448324
   2009,   4.61370182,  -1.30000019,   4.88337994
   2010,    4.2687459,  -1.30000019,    4.5162468
   2011,   3.94080305,  -1.30000019,   4.13384008
   2012,   3.63054872,  -1.30000019,   3.73694801
   2013,   3.33862185,  -1.30000019,   3.32638741
   2014,     3.065624,  -1.30000019,   2.90300393
   2015,   2.81211734,  -1.30000019,   2.46766996
   2016,   2.57862401,  -1.30000019,    2.0212822
   2017,   2.36562514,  -1.30000019,   1.56475973
   2018,   2.82341433,   1.29999983,   1.36369002
   2019,   3.02681875,   1.29999983,    1.7996484
   2020,   3.24979424,   1.29999983,   2.22592878
   2021,   3.49188185,   1.29999983,   2.64165306
   2022,   3.75258231,   1.29999983,   3.04596496
   2023,    4.0313592,   1.29999983,   3.43803191
   2024,   4.32763815,   1.29999983,   3.81704617
   2025,   4.64080906,   1.29999983,   4.18222713
   2026,   4.97022629,   1.29999983,   4.53282261
   2027,   5.31521225,   1.29999983,   4.86811066
   2028,    5.6750555,   1.29999983,   5.18739986
   2029,   6.04901505,   1.29999983,   5.49003363
   2030,   6.43632126,   1.29999983,   5.77538824
   2031,   6.83617544,   1.29999983,   6.04287529
   2032,   7.24775457,   1.29999983,   6.29194498
   2033,   7.67021084,   1.29999983,   6.52208328
   2034,   8.10267448,   1.29999983,    6.7328167
   2035,   8.54425335,   1.29999983,    6.9237113
   2036,   8.99403954,   1.29999983,   7.09437323
   2037,   9.45110607,   1.29999983,   7.24445152
   2038,   9.91451073,   1.29999983,    7.3736372
   2039,   10.3832998,   1.29999983,   7.48166323
   2040,   10.8565083,   1.29999983,   7.56830835
   2041,   11.3331594,   1.29999983,   7.63339329
   2042,    11.812274,   1.29999983,   7.67678404
   2043,   12.2928629,   1.29999983,   7.69839191
   2044,   12.7739382,   1.29999983,   7.69817114
   2045,   13.2545071,   1.29999983,   7.67612362
   2046,   13.7335815,   1.29999983,    7.6322937
   2047,   14.2101736,   1.29999983,   7.56677198
   2048,   14.6833019,   1.29999983,   7.47969341
   2049,   15.1519918,   1.29999983,   7.37123775
   2050,   15.6152782,   1.29999983,   7.24162769
   2051,   16.0722065,   1.29999983,   7.09113073
   2052,   16.5218372,   1.29999983,   6.92005634
   2053,   16.9632397,   1.29999983,   6.72875738
   2054,   17.3955097,   1.29999983,   6.51762819
   2055,   17.8177567,   1.29999983,    6.2871027
   2056,   18.2291069,   1.29999983,   6.03765631
   2057,   18.6287155,   1.29999983,   5.76980257
   2058,   19.0157604,   1.29999983,   5.48409319
   2059,   19.3894424,   1.29999983,   5.18111706
   2060,   19.7489929,   1.29999983,   4.86149788
   2061,   20.0936718,   1.29999983,   4.52589417
   2062,   20.4227676,   1.29999983,   4.17499733
   2063,   20.7356033,   1.29999983,    3.8095293
   2064,   21.0315342,   1.29999983,   3.43024373
   2065,   21.3099518,   1.29999983,   3.03792167
   2066,    21.570282,   1.29999983,   2.63337088
   2067,   21.8119888,   1.29999983,   2.21742487
   2068,   22.0345745,   1.29999983,   1.79094052
   2069,   22.2375793,   1.29999983,   1.35479593
   2070,   22.4205856,   1.29999983,  0.909889758
   2071,   2.82341433,   1.09999979,   1.36369002
   2072,   3.02681875,   1.09999979,    1.7996484
   2073,   3.24979424,   1.09999979,   2.22592878
   2074,   3.49188185,   1.09999979,   2.64165306
   2075,   3.75258231,   1.09999979,   3.04596496
   2076,    4.0313592,   1.09999979,   3.43803191
   2077,   4.32763815,   1.09999979,   3.81704617
   2078,   4.64080906,   1.09999979,   4.18222713
   2079,   4.97022629,   1.09999979,   4.53282261
   2080,   5.31521225,   1.09999979,   4.86811066
   2081,    5.6750555,   1.09999979,   5.18739986
   2082,   6.04901505,   1.09999979,   5.49003363
   2083,   6.43632126,   1.09999979,   5.77538824
   2084,   6.83617544,   1.09999979,   6.04287529
   2085,   7.24775457,   1.09999979,   6.29194498
   2086,   7.67021084,   1.09999979,   6.52208328
   2087,   8.10267448,   1.09999979,    6.7328167
   2088,   8.54425335,   1.09999979,    6.9237113
   2089,   8.99403954,   1.09999979,   7.09437323
   2090,   9.45110607,   1.09999979,   7.24445152
   2091,   9.91451073,   1.09999979,    7.3736372
   2092,   10.3832998,   1.09999979,   7.48166323
   2093,   10.8565083,   1.09999979,   7.56830835
   2094,   11.3331594,   1.09999979,   7.63339329
   2095,    11.812274,   1.09999979,   7.67678404
   2096,   12.2928629,   1.09999979,   7.69839191
   2097,   12.7739382,   1.09999979,   7.69817114
   2098,   13.2545071,   1.09999979,   7.67612362
   2099,   13.7335815,   1.09999979,    7.6322937
   2100,   14.2101736,   1.09999979,   7.56677198
   2101,   14.6833019,   1.09999979,   7.47969341
   2102,   15.1519918,   1.09999979,   7.37123775
   2103,   15.6152782,   1.09999979,   7.24162769
   2104,   16.0722065,   1.09999979,   7.09113073
   2105,   16.5218372,   1.09999979,   6.92005634
   2106,   16.9632397,   1.09999979,   6.72875738
   2107,   17.3955097,   1.09999979,   6.51762819
   2108,   17.8177567,   1.09999979,    6.2871027
   2109,   18.2291069,   1.09999979,   6.03765631
   2110,   18.6287155,   1.09999979,   5.76980257
   2111,   19.0157604,   1.09999979,   5.48409319
   2112,   19.3894424,   1.09999979,   5.18111706
   2113,   19.7489929,   1.09999979,   4.86149788
   2114,   20.0936718,   1.09999979,   4.52589417
   2115,   20.4227676,   1.09999979,   4.17499733
   2116,   20.7356033,   1.09999979,    3.8095293
   2117,   21.0315342,   1.09999979,   3.43024373
   2118,   21.3099518,   1.09999979,   3.03792167
   2119,    21.570282,   1.09999979,   2.63337088
   2120,   21.8119888,   1.09999979,   2.21742487
   2121,   22.0345745,   1.09999979,   1.79094052
   2122,   22.2375793,   1.09999979,   1.35479593
   2123,   22.4205856,   1.09999979,  0.909889758
   2124,   2.82341433,  0.549999833,   1.36369002
   2125,   3.02681875,  0.549999833,    1.7996484
   2126,   3.24979424,  0.549999833,   2.22592878
   2127,   3.49188185,  0.549999833,   2.64165306
   2128,   3.75258231,  0.549999833,   3.04596496
   2129,    4.0313592,  0.549999833,   3.43803191
   2130,   4.32763815,  0.549999833,   3.81704617
   2131,   4.64080906,  0.549999833,   4.18222713
   2132,   4.97022629,  0.549999833,   4.53282261
   2133,   5.31521225,  0.549999833,   4.86811066
   2134,    5.6750555,  0.549999833,   5.18739986
   2135,   6.04901505,  0.549999833,   5.49003363
   2136,   6.43632126,  0.549999833,   5.77538824
   2137,   6.83617544,  0.549999833,   6.04287529
   2138,   7.24775457,  0.549999833,   6.29194498
   2139,   7.67021084,  0.549999833,   6.52208328
   2140,   8.10267448,  0.549999833,    6.7328167
   2141,   8.54425335,  0.549999833,    6.9237113
   2142,   8.99403954,  0.549999833,   7.09437323
   2143,   9.45110607,  0.549999833,   7.24445152
   2144,   9.91451073,  0.549999833,    7.3736372
   2145,   10.3832998,  0.549999833,   7.48166323
   2146,   10.8565083,  0.549999833,   7.56830835
   2147,   11.3331594,  0.549999833,   7.63339329
   2148,    11.812274,  0.549999833,   7.67678404
   2149,   12.2928629,  0.549999833,   7.69839191
   2150,   12.7739382,  0.549999833,   7.69817114
   2151,   13.2545071,  0.549999833,   7.67612362
   2152,   13.7335815,  0.549999833,    7.6322937
   2153,   14.2101736,  0.549999833,   7.56677198
   2154,   14.6833019,  0.549999833,   7.47969341
   2155,   15.1519918,  0.549999833,   7.37123775
   2156,   15.6152782,  0.549999833,   7.24162769
   2157,   16.0722065,  0.549999833,   7.09113073
   2158,   16.5218372,  0.549999833,   6.92005634
   2159,   16.9632397,  0.549999833,   6.72875738
   2160,   17.3955097,  0.549999833,   6.51762819
   2161,   17.8177567,  0.549999833,    6.2871027
   2162,   18.2291069,  0.549999833,   6.03765631
   2163,   18.6287155,  0.549999833,   5.76980257
   2164,   19.0157604,  0.549999833,   5.48409319
   2165,   19.3894424,  0.549999833,   5.18111706
   2166,   19.7489929,  0.549999833,   4.86149788
   2167,   20.0936718,  0.549999833,   4.52589417
   2168,   20.4227676,  0.549999833,   4.17499733
   2169,   20.7356033,  0.549999833,    3.8095293
   2170,   21.0315342,  0.549999833,   3.43024373
   2171,   21.3099518,  0.549999833,   3.03792167
   2172,    21.570282,  0.549999833,   2.63337088
   2173,   21.8119888,  0.549999833,   2.21742487
   2174,   22.0345745,  0.549999833,   1.79094052
   2175,   22.2375793,  0.549999833,   1.35479593
   2176,   22.4205856,  0.549999833,  0.909889758
   2177,   2.82341433, -1.88258127e-07,   1.36369002
   2178,   3.02681875, -1.88258127e-07,    1.7996484
   2179,   3.24979424, -1.88258127e-07,   2.22592878
   2180,   3.49188185, -1.88258127e-07,   2.64165306
   2181,   3.75258231, -1.88258127e-07,   3.04596496
   2182,    4.0313592, -1.88258127e-07,   3.43803191
   2183,   4.32763815, -1.88258127e-07,   3.81704617
   2184,   4.64080906, -1.88258127e-07,   4.18222713
   2185,   4.97022629, -1.88258127e-07,   4.53282261
   2186,   5.31521225, -1.88258127e-07,   4.86811066
   2187,    5.6750555, -1.88258127e-07,   5.18739986
   2188,   6.04901505, -1.88258127e-07,   5.49003363
   2189,   6.43632126, -1.88258127e-07,   5.77538824
   2190,   6.83617544, -1.88258127e-07,   6.04287529
   2191,   7.24775457, -1.88258127e-07,   6.29194498
   2192,   7.67021084, -1.88258127e-07,   6.52208328
   2193,   8.10267448, -1.88258127e-07,    6.7328167
   2194,   8.54425335, -1.88258127e-07,    6.9237113
   2195,   8.99403954, -1.88258127e-07,   7.09437323
   2196,   9.45110607, -1.88258127e-07,   7.24445152
   2197,   9.91451073, -1.88258127e-07,    7.3736372
   2198,   10.3832998, -1.88258127e-07,   7.48166323
   2199,   10.8565083, -1.88258127e-07,   7.56830835
   2200,   11.3331594, -1.88258127e-07,   7.63339329
   2201,    11.812274, -1.88258127e-07,   7.67678404
   2202,   12.2928629, -1.88258127e-07,   7.69839191
   2203,   12.7739382, -1.88258127e-07,   7.69817114
   2204,   13.2545071, -1.88258127e-07,   7.67612362
   2205,   13.7335815, -1.88258127e-07,    7.6322937
   2206,   14.2101736, -1.88258127e-07,   7.56677198
   2207,   14.6833019, -1.88258127e-07,   7.47969341
   2208,   15.1519918, -1.88258127e-07,   7.37123775
   2209,   15.6152782, -1.88258127e-07,   7.24162769
   2210,   16.0722065, -1.88258127e-07,   7.09113073
   2211,   16.5218372, -1.88258127e-07,   6.92005634
   2212,   16.9632397, -1.88258127e-07,   6.72875738
   2213,   17.3955097, -1.88258127e-07,   6.51762819
   2214,   17.8177567, -1.88258127e-07,    6.2871027
   2215,   18.2291069, -1.88258127e-07,   6.03765631
   2216,   18.6287155, -1.88258127e-07,   5.76980257
   2217,   19.0157604, -1.88258127e-07,   5.48409319
   2218,   19.3894424, -1.88258127e-07,   5.18111706
   2219,   19.7489929, -1.88258127e-07,   4.86149788
   2220,   20.0936718, -1.88258127e-07,   4.52589417
   2221,   20.4227676, -1.88258127e-07,   4.17499733
   2222,   20.7356033, -1.88258127e-07,    3.8095293
   2223,   21.0315342, -1.88258127e-07,   3.43024373
   2224,   21.3099518, -1.88258127e-07,   3.03792167
   2225,    21.570282, -1.88258127e-07,   2.63337088
   2226,   21.8119888, -1.88258127e-07,   2.21742487
   2227,   22.0345745, -1.88258127e-07,   1.79094052
   2228,   22.2375793, -1.88258127e-07,   1.35479593
   2229,   22.4205856, -1.88258127e-07,  0.909889758
   2230,   2.82341433, -0.550000191,   1.36369002
   2231,   3.02681875, -0.550000191,    1.7996484
   2232,   3.24979424, -0.550000191,   2.22592878
   2233,   3.49188185, -0.550000191,   2.64165306
   2234,   3.75258231, -0.550000191,   3.04596496
   2235,    4.0313592, -0.550000191,   3.43803191
   2236,   4.32763815, -0.550000191,   3.81704617
   2237,   4.64080906, -0.550000191,   4.18222713
   2238,   4.97022629, -0.550000191,   4.53282261
   2239,   5.31521225, -0.550000191,   4.86811066
   2240,    5.6750555, -0.550000191,   5.18739986
   2241,   6.04901505, -0.550000191,   5.49003363
   2242,   6.43632126, -0.550000191,   5.77538824
   2243,   6.83617544, -0.550000191,   6.04287529
   2244,   7.24775457, -0.550000191,   6.29194498
   2245,   7.67021084, -0.550000191,   6.52208328
   2246,   8.10267448, -0.550000191,    6.7328167
   2247,   8.54425335, -0.550000191,    6.9237113
   2248,   8.99403954, -0.550000191,   7.09437323
   2249,   9.45110607, -0.550000191,   7.24445152
   2250,   9.91451073, -0.550000191,    7.3736372
   2251,   10.3832998, -0.550000191,   7.48166323
   2252,   10.8565083, -0.550000191,   7.56830835
   2253,   11.3331594, -0.550000191,   7.63339329
   2254,    11.812274, -0.550000191,   7.67678404
   2255,   12.2928629, -0.550000191,   7.69839191
   2256,   12.7739382, -0.550000191,   7.69817114
   2257,   13.2545071, -0.550000191,   7.67612362
   2258,   13.7335815, -0.550000191,    7.6322937
   2259,   14.2101736, -0.550000191,   7.56677198
   2260,   14.6833019, -0.550000191,   7.47969341
   2261,   15.1519918, -0.550000191,   7.37123775
   2262,   15.6152782, -0.550000191,   7.24162769
   2263,   16.0722065, -0.550000191,   7.09113073
   2264,   16.5218372, -0.550000191,   6.92005634
   2265,   16.9632397, -0.550000191,   6.72875738
   2266,   17.3955097, -0.550000191,   6.51762819
   2267,   17.8177567, -0.550000191,    6.2871027
   2268,   18.2291069, -0.550000191,   6.03765631
   2269,   18.6287155, -0.550000191,   5.76980257
   2270,   19.0157604, -0.550000191,   5.48409319
   2271,   19.3894424, -0.550000191,   5.18111706
   2272,   19.7489929, -0.550000191,   4.86149788
   2273,   20.0936718, -0.550000191,   4.52589417
   2274,   20.4227676, -0.550000191,   4.17499733
   2275,   20.7356033, -0.550000191,    3.8095293
   2276,   21.0315342, -0.550000191,   3.43024373
   2277,   21.3099518, -0.550000191,   3.03792167
   2278,    21.570282, -0.550000191,   2.63337088
   2279,   21.8119888, -0.550000191,   2.21742487
   2280,   22.0345745, -0.550000191,   1.79094052
   2281,   22.2375793, -0.550000191,   1.35479593
   2282,   22.4205856, -0.550000191,  0.909889758
   2283,   2.82341433,  -1.10000014,   1.36369002
   2284,   3.02681875,  -1.10000014,    1.7996484
   2285,   3.24979424,  -1.10000014,   2.22592878
   2286,   3.49188185,  -1.10000014,   2.64165306
   2287,   3.75258231,  -1.10000014,   3.04596496
   2288,    4.0313592,  -1.10000014,   3.43803191
   2289,   4.32763815,  -1.10000014,   3.81704617
   2290,   4.64080906,  -1.10000014,   4.18222713
   2291,   4.97022629,  -1.10000014,   4.53282261
   2292,   5.31521225,  -1.10000014,   4.86811066
   2293,    5.6750555,  -1.10000014,   5.18739986
   2294,   6.04901505,  -1.10000014,   5.49003363
   2295,   6.43632126,  -1.10000014,   5.77538824
   2296,   6.83617544,  -1.10000014,   6.04287529
   2297,   7.24775457,  -1.10000014,   6.29194498
   2298,   7.67021084,  -1.10000014,   6.52208328
   2299,   8.10267448,  -1.10000014,    6.7328167
   2300,   8.54425335,  -1.10000014,    6.9237113
   2301,   8.99403954,  -1.10000014,   7.09437323
   2302,   9.45110607,  -1.10000014,   7.24445152
   2303,   9.91451073,  -1.10000014,    7.3736372
   2304,   10.3832998,  -1.10000014,   7.48166323
   2305,   10.8565083,  -1.10000014,   7.56830835
   2306,   11.3331594,  -1.10000014,   7.63339329
   2307,    11.812274,  -1.10000014,   7.67678404
   2308,   12.2928629,  -1.10000014,   7.69839191
   2309,   12.7739382,  -1.10000014,   7.69817114
   2310,   13.2545071,  -1.10000014,   7.67612362
   2311,   13.7335815,  -1.10000014,    7.6322937
   2312,   14.2101736,  -1.10000014,   7.56677198
   2313,   14.6833019,  -1.10000014,   7.47969341
   2314,   15.1519918,  -1.10000014,   7.37123775
   2315,   15.6152782,  -1.10000014,   7.24162769
   2316,   16.0722065,  -1.10000014,   7.09113073
   2317,   16.5218372,  -1.10000014,   6.92005634
   2318,   16.9632397,  -1.10000014,   6.72875738
   2319,   17.3955097,  -1.10000014,   6.51762819
   2320,   17.8177567,  -1.10000014,    6.2871027
   2321,   18.2291069,  -1.10000014,   6.03765631
   2322,   18.6287155,  -1.10000014,   5.76980257
   2323,   19.0157604,  -1.10000014,   5.48409319
   2324,   19.3894424,  -1.10000014,   5.18111706
   2325,   19.7489929,  -1.10000014,   4.86149788
   2326,   20.0936718,  -1.10000014,   4.52589417
   2327,   20.4227676,  -1.10000014,   4.17499733
   2328,   20.7356033,  -1.10000014,    3.8095293
   2329,   21.0315342,  -1.10000014,   3.43024373
   2330,   21.3099518,  -1.10000014,   3.03792167
   2331,    21.570282,  -1.10000014,   2.63337088
   2332,   21.8119888,  -1.10000014,   2.21742487
   2333,   22.0345745,  -1.10000014,   1.79094052
   2334,   22.2375793,  -1.10000014,   1.35479593
   2335,   22.4205856,  -1.10000014,  0.909889758
   2336,   2.82341433,  -1.30000019,   1.36369002
   2337,   3.02681875,  -1.30000019,    1.7996484
   2338,   3.24979424,  -1.30000019,   2.22592878
   2339,   3.49188185,  -1.30000019,   2.64165306
   2340,   3.75258231,  -1.30000019,   3.04596496
   2341,    4.0313592,  -1.30000019,   3.43803191
   2342,   4.32763815,  -1.30000019,   3.81704617
   2343,   4.64080906,  -1.30000019,   4.18222713
   2344,   4.97022629,  -1.30000019,   4.53282261
   2345,   5.31521225,  -1.30000019,   4.86811066
   2346,    5.6750555,  -1.30000019,   5.18739986
   2347,   6.04901505,  -1.30000019,   5.49003363
   2348,   6.43632126,  -1.30000019,   5.77538824
   2349,   6.83617544,  -1.30000019,   6.04287529
   2350,   7.24775457,  -1.30000019,   6.29194498
   2351,   7.67021084,  -1.30000019,   6.52208328
   2352,   8.10267448,  -1.30000019,    6.7328167
   2353,   8.54425335,  -1.30000019,    6.9237113
   2354,   8.99403954,  -1.30000019,   7.09437323
   2355,   9.45110607,  -1.30000019,   7.24445152
   2356,   9.91451073,  -1.30000019,    7.3736372
   2357,   10.3832998,  -1.30000019,   7.48166323
   2358,   10.8565083,  -1.30000019,   7.56830835
   2359,   11.3331594,  -1.30000019,   7.63339329
   2360,    11.812274,  -1.30000019,   7.67678404
   2361,   12.2928629,  -1.30000019,   7.69839191
   2362,   12.7739382,  -1.30000019,   7.69817114
   2363,   13.2545071,  -1.30000019,   7.67612362
   2364,   13.7335815,  -1.30000019,    7.6322937
   2365,   14.2101736,  -1.30000019,   7.56677198
   2366,   14.6833019,  -1.30000019,   7.47969341
   2367,   15.1519918,  -1.30000019,   7.37123775
   2368,   15.6152782,  -1.30000019,   7.24162769
   2369,   16.0722065,  -1.30000019,   7.09113073
   2370,   16.5218372,  -1.30000019,   6.92005634
   2371,   16.9632397,  -1.30000019,   6.72875738
   2372,   17.3955097,  -1.30000019,   6.51762819
   2373,   17.8177567,  -1.30000019,    6.2871027
   2374,   18.2291069,  -1.30000019,   6.03765631
   2375,   18.6287155,  -1.30000019,   5.76980257
   2376,   19.0157604,  -1.30000019,   5.48409319
   2377,   19.3894424,  -1.30000019,   5.18111706
   2378,   19.7489929,  -1.30000019,   4.86149788
   2379,   20.0936718,  -1.30000019,   4.52589417
   2380,   20.4227676,  -1.30000019,   4.17499733
   2381,   20.7356033,  -1.30000019,    3.8095293
   2382,   21.0315342,  -1.30000019,   3.43024373
   2383,   21.3099518,  -1.30000019,   3.03792167
   2384,    21.570282,  -1.30000019,   2.63337088
   2385,   21.8119888,  -1.30000019,   2.21742487
   2386,   22.0345745,  -1.30000019,   1.79094052
   2387,   22.2375793,  -1.30000019,   1.35479593
   2388,   22.4205856,  -1.30000019,  0.909889758
   2389,   24.1252441,  -1.10000014,  -0.63568604
   2390,   1.53322041,  -1.10000014,   2.13634729
   2391,   1.61160481,  -1.10000014,   2.71459413
   2392,   1.59160483,  -1.10000014,     3.805933
   2393,   1.67317796,  -1.10000014,   4.78305197
   2394,   1.58176529,  -1.10000014,   5.83872652
   2395,   2.97144723,  -1.10000014,   5.68265629
   2396,   2.64687014,  -1.10000014,   4.56492901
   2397,   2.65984368,  -1.10000014,   3.91479015
   2398,  0.618446529,  -1.10000014,   1.01297438
   2399,  0.573070824,  -1.10000014,   2.02990246
   2400,  0.493135035,  -1.10000014,   2.68910813
   2401,  0.373334646,  -1.10000014,   3.85958004
   2402,  0.733100653,  -1.10000014,   4.88439846
   2403, -0.466453254,  -1.10000014,   3.61583281
   2404, -0.241793469,  -1.10000014,   4.70594215
   2405,   3.91159296,  -1.10000014,   5.63621378
   2406,   3.87119627,  -1.10000014,   4.86954355
   2407,    4.9583292,  -1.10000014,   5.96255016
   2408,   6.08658552,  -1.10000014,   6.98315096
   2409,   19.5087242,  -1.10000014,   6.88080978
   2410,   20.4592285,  -1.10000014,   5.65625668
   2411,   21.5597668,  -1.10000014,   5.93120432
   2412,   21.6088905,  -1.10000014,   4.55805874
   2413,   22.8740616,  -1.10000014,   5.81802511
   2414,   22.6083355,  -1.10000014,   4.80770254
   2415,   23.0221329,  -1.10000014,   3.67325521
   2416,   23.8848248,  -1.10000014,    5.5898962
   2417,   23.6007481,  -1.10000014,   4.82530975
   2418,   23.6084442,  -1.10000014,   3.81018949
   2419,   23.7110634,  -1.10000014,   2.60497975
   2420,   23.7952423,  -1.10000014,   1.67340219
   2421,   23.8667736,  -1.10000014,    0.7647385
   2422,   23.4147282,  -1.10000014, -0.627828121
   2423,   23.4187622,  -1.10000014,  -1.38126147
   2424,   24.4466953,  -1.10000014,  0.763258636
   2425,   24.7878304,  -1.10000014,   1.93648517
   2426,   24.5070534,  -1.10000014,   2.77824092
   2427,   24.5568123,  -1.10000014,   4.60378551
   2428,   25.8161507,  -1.10000014,   4.82684946
   2429,   25.7313614,  -1.10000014,   3.72213721
   2430,   25.5791054,  -1.10000014,   2.85871649
   2431,   25.4641609,  -1.10000014,   1.93335426
   2432,   25.5017052,  -1.10000014,  0.593173623
   2433,   25.4850101,  -1.10000014, -0.340552807
   2434,   26.7582569,  -1.10000014,   4.60959291
   2435,   26.6327972,  -1.10000014,     3.736624
   2436,   26.7264557,  -1.10000014,   2.68017602
   2437,   26.4712925,  -1.10000014,   1.44954395
   2438,   26.4077549,  -1.10000014,  0.765896261
   2439,   27.8401108,  -1.10000014,   4.83056879
   2440,   27.6101971,  -1.10000014,    3.9531858
   2441,   27.6375809,  -1.10000014,   2.92739224
   2442,    27.888586,  -1.10000014,   1.93744719
   2443,   28.9607887,  -1.10000014,   3.61518145
   2444,   28.6238842,  -1.10000014,   2.58006024
   2445,   29.5940208,  -1.10000014,   3.97807026
   2446,   23.2973976,  -1.10000014,  0.194152921
   2447,   1.86105704,  -1.10000014,  0.882555842
   2448,   2.04425025,  -1.10000014,  0.570465028
   2449,   23.0021019,  -1.10000014,  -1.56110418
   2450, -0.273747027,  -1.10000014,   3.09905767
   2451,   25.0683746,  -1.10000014, -0.554491162
   2452,   22.5922356,  -1.10000014,  -1.72610772
   2453,   22.6797771,  -1.10000014, -0.859469473
   2454,   22.6322556,  -1.10000014,  -1.29779053
   2455,   22.7320347,  -1.10000014, -0.426647544
   2456,   22.8175888,  -1.10000014, 0.0189242288
   2457,   23.7636909,  -1.10000014,  0.204439968
   2458,   24.2332649,  -1.10000014, -0.981791854
   2459,    24.647995,  -1.10000014, -0.769629598
   2460,   25.8957806,  -1.10000014, -0.125614032
   2461,   23.8331795,  -1.10000014,  -1.19384265
   2462,   26.2910213,  -1.10000014, 0.0982466862
   2463,   5.60751295,  -1.10000014,   6.79769373
   2464,   21.5753193,  -1.10000014,   6.32871485
   2465,   27.3552666,  -1.10000014,   4.94693851
   2466,    20.500515,  -1.10000014,    6.4095974
   2467,   19.9601402,  -1.10000014,   6.68030596
   2468,   28.3206196,  -1.10000014,    4.7223196
   2469,   29.7562637,  -1.10000014,   4.42184114
   2470,    22.517374,  -1.10000014,   6.16519642
   2471,   25.9210243,  -1.10000014,   5.29775429
   2472,   30.6881294,  -1.10000014,   4.26507664
   2473,   19.1824417,  -1.10000014,   7.03258705
   2474,    31.132103,  -1.10000014,   4.14780188
   2475,   22.0516548,  -1.10000014,   6.21684551
   2476,   25.4578953,  -1.10000014,   5.41605949
   2477,   29.2812347,  -1.10000014,   4.51340914
   2478,   30.2279835,  -1.10000014,   4.34645844
   2479,   21.0882397,  -1.10000014,   6.37170839
   2480,   26.3900757,  -1.10000014,   5.17813778
   2481,   28.8002033,  -1.10000014,   4.61836958
   2482,   23.3987312,  -1.10000014,   5.90278482
   2483,   24.9795837,  -1.10000014,   5.51013803
   2484, -0.847497582,  -1.10000014,   5.07581663
   2485,  0.659352183,  -1.10000014,   5.40002632
   2486,  0.143347651,  -1.10000014,   5.30089998
   2487,   4.55342007,  -1.10000014,    6.2948451
   2488,   5.11697626,  -1.10000014,   6.58711052
   2489,   3.96246481,  -1.10000014,    6.2179718
   2490,   3.46443081,  -1.10000014,   6.15925312
   2491,  -0.35714075,  -1.10000014,   5.19151402
   2492,   21.9790115,  -1.10000014,   4.15315104
   2493,   22.9712601,  -1.10000014,   2.24650574
   2494,   2.40117002,  -1.10000014,   2.85389566
   2495,   2.12843156,  -1.10000014,   2.50382233
   2496,    22.433321,  -1.10000014,   3.72838426
   2497,   4.61062288,  -1.10000014,   5.60160589
   2498,   4.22469139,  -1.10000014,   5.27134848
   2499,   3.54513288,  -1.10000014,   4.45882988
   2500,   22.7634754,  -1.10000014,   2.69189477
   2501,   20.8639278,  -1.10000014,   5.33508873
   2502,   22.5804501,  -1.10000014,   3.16152048
   2503,   20.1009445,  -1.10000014,   6.00921822
   2504,   23.1898918,  -1.10000014,   1.81165373
   2505,   1.86419344,  -1.10000014,   2.26978016
   2506,   5.38035631,  -1.10000014,   6.27278662
   2507,  0.231988147,  -1.10000014,   1.01233041
   2508, -0.0803270042,  -1.10000014,    2.1110661
   2509,  0.198287398,  -1.10000014,   1.60069323
   2510, -0.253155947,  -1.10000014,   2.56563187
   2511, -0.724629402,  -1.10000014,   4.58641863
   2512,  -0.60391438,  -1.10000014,   4.09985781
   2513,   26.6690464,  -1.10000014,  0.339344949
   2514,   30.5374489,  -1.10000014,   3.49678516
   2515,   29.7118759,  -1.10000014,    2.9751308
   2516,   28.1723175,  -1.10000014,   1.58884037
   2517,   30.8529186,  -1.10000014,   3.81104112
   2518,   27.0407352,  -1.10000014,  0.625197709
   2519,    29.302721,  -1.10000014,   2.62163353
   2520,   27.7953262,  -1.10000014,    1.2604537
   2521,   27.4155235,  -1.10000014,  0.936209857
   2522,   28.9204578,  -1.10000014,   2.26410246
   2523,    30.147213,  -1.10000014,   3.24009299
   2524,  0.391124099,  -1.10000014,  0.521130741
   2525,   1.50719607,  -1.10000014,  0.527178824
   2526,    23.075386,  -1.10000014, -0.348077357
   2527,   23.0377541,  -1.10000014,   3.23793101
   2528,   1.30363238,  -1.10000014,   2.57176495
   2529,  0.727429152,  -1.10000014,   1.35140073
   2530,   24.0834217,  -1.10000014,  0.504376352
   2531,   22.9693604,  -1.10000014,   6.09422207
   2532,   23.1071148,  -1.10000014,   5.57882738
   2533,   1.52330375,  -1.10000014,  0.937852025
   2534,   22.7149544,  -1.10000014,    4.2214632
   2535,   24.9316597,  -1.10000014, -0.197619423
   2536,   3.57356906,  -1.10000014,   5.10020447
   2537,   22.0041485,  -1.10000014,   5.66337013
   2538,   28.1922398,  -1.10000014,   4.28025532
   2539,   23.3991966,  -1.10000014,  -1.02893496
   2540,   19.6868954,  -1.10000014,   6.30737638
   2541,   23.0152683,  -1.10000014,  -1.16692185
   2542,   23.0441628,  -1.10000014, -0.748868704
   2543,    21.161768,  -1.10000014,   5.77448988
   2544,   23.7754688,  -1.10000014, -0.869778216
   2545, 0.0568119399,  -1.10000014,   2.60198903
   2546,   25.3969631,  -1.10000014,   4.97726297
   2547,   24.4775772,  -1.10000014,   5.57102346
   2548,    30.492054,  -1.10000014,   3.93267107
   2549,   28.6587219,  -1.10000014,   4.18429756
   2550,   29.1328335,  -1.10000014,   4.07202625
   2551,   24.9553642,  -1.10000014,   5.04976225
   2552,   23.5607948,  -1.10000014,   2.03282619
   2553,   1.27532399,  -1.10000014,   5.48969221
   2554,   4.37699366,  -1.10000014,   5.83159542
   2555,  0.250044346,  -1.10000014,   4.80381775
   2556,   25.7065048,  -1.10000014,  0.254533648
   2557,   25.3257713,  -1.10000014,  0.019525731
   2558,   2.66996527,  -1.10000014,   3.24395466
   2559,   1.70060194,  -1.10000014,   1.69446886
   2560,   21.2506943,  -1.10000014,    4.9583869
   2561,   23.4111671,  -1.10000014,    1.3981781
   2562,   26.7631836,  -1.10000014,   1.03705788
   2563,   29.4501724,  -1.10000014,   3.41446018
   2564,   28.2556248,  -1.10000014,   2.25350356
   2565, 0.0967634171,  -1.10000014,   3.38350511
   2566,  0.937330782,  -1.10000014,  0.616338372
   2567,   23.1634979,  -1.10000014,    2.8269453
   2568,   3.42436743,  -1.10000014,   5.70182085
   2569,   1.63471127,  -1.10000014,   1.31070507
   2570,   2.39441514,  -1.10000014,    3.5407052
   2571,   1.39068282,  -1.10000014,   1.70224297
   2572,   24.5059528,  -1.10000014,   5.07077026
   2573,   1.21071804,  -1.10000014,     4.931674
   2574,    24.029377,  -1.10000014,   1.35207748
   2575,   23.9744873,  -1.10000014, 0.0521450378
   2576,  0.336743742,  -1.10000014,   4.30489874
   2577,   23.4397717,  -1.10000014,   3.30917645
   2578,   24.9611855,  -1.10000014,   4.57087564
   2579,   25.1514568,  -1.10000014,  0.353050768
   2580,   1.96044457,  -1.10000014,   5.29448271
   2581,    1.1917125,  -1.10000014,   2.00354099
   2582,   24.5256042,  -1.10000014, -0.419808269
   2583,    23.392374,  -1.10000014,   5.24716187
   2584,   22.3165092,  -1.10000014,   5.17104006
   2585,    23.255003,  -1.10000014,   4.14564657
   2586,   3.25738883,  -1.10000014,   4.68284464
   2587,   21.5967178,  -1.10000014,   5.30640268
   2588,   24.1638565,  -1.10000014,    1.9466933
   2589,   20.6984177,  -1.10000014,   5.93011713
   2590,  0.263619453,  -1.10000014,   2.34499145
   2591, -0.0438715778,  -1.10000014,   3.77167392
   2592,   24.2450314,  -1.10000014,   2.50207138
   2593,  0.923492968,  -1.10000014,   1.71310186
   2594,   24.3949013,  -1.10000014, -0.0883797109
   2595,  0.886067092,  -1.10000014,   2.47785735
   2596,    24.976656,  -1.10000014,  0.673760891
   2597,   2.36284995,  -1.10000014,   4.20253086
   2598,   24.1580582,  -1.10000014,   4.57462215
   2599,  0.846562624,  -1.10000014,   4.30709362
   2600,   2.52587771,  -1.10000014,   5.53017759
   2601,   22.9728241,  -1.10000014,   5.01790857
   2602,   22.7189121,  -1.10000014,   5.37152004
   2603,   23.9216442,  -1.10000014,   3.11773872
   2604,    21.955616,  -1.10000014,   4.88656807
   2605,   23.6951408,  -1.10000014, -0.614511073
   2606,   2.32791829,  -1.10000014,    4.8825922
   2607,  0.148210913,  -1.10000014,   2.87239671
   2608,   25.6188431,  -1.10000014,   4.27587223
   2609,   29.0054359,  -1.10000014,   2.93936682
   2610,   2.69134021,  -1.10000014,   5.17697144
   2611,   1.11865258,  -1.10000014,   1.08552611
   2612,   24.5024357,  -1.10000014,   2.23224664
   2613,   25.7796021,  -1.10000014,  0.871426105
   2614,   24.5363026,  -1.10000014,   4.14344645
   2615,   22.8342533,  -1.10000014,   4.54550838
   2616,   28.6707935,  -1.10000014,   3.20276141
   2617,   1.20335662,  -1.10000014,   2.96364713
   2618,   25.3615513,  -1.10000014,    1.1909616
   2619,   24.2826099,  -1.10000014,   3.67715335
   2620,   24.2245178,  -1.10000014,   4.24515343
   2621,   2.95127869,  -1.10000014,   4.29615068
   2622,   1.47749603,  -1.10000014,   4.35899496
   2623,   2.03911781,  -1.10000014,   4.50665331
   2624,   26.1827755,  -1.10000014,   4.22958565
   2625,   24.8008022,  -1.10000014,   2.56156778
   2626,   25.0289154,  -1.10000014,     4.023664
   2627,   23.7435551,  -1.10000014,   4.40545034
   2628,   24.7801533,  -1.10000014,  0.128859505
   2629,    26.104353,  -1.10000014,    1.1663394
   2630,   22.3029251,  -1.10000014,   4.50783205
   2631,   1.63803387,  -1.10000014,   3.26714826
   2632,   1.99831462,  -1.10000014,   5.83154392
   2633,   27.2414188,  -1.10000014,   4.50455809
   2634,   24.4175835,  -1.10000014,   1.64063168
   2635,   3.23891258,  -1.10000014,    4.0534811
   2636,   1.40306258,  -1.10000014,   3.11532617
   2637,    23.958622,  -1.10000014,   4.03320789
   2638,   24.6580677,  -1.10000014,   1.32773936
   2639,   24.2495975,  -1.10000014,   1.05525875
   2640,   25.0763512,  -1.10000014,   1.60019076
   2641,   23.1694889,  -1.10000014,   4.63066578
   2642,   24.2899513,  -1.10000014,   3.21567059
   2643,   26.2782211,  -1.10000014,   4.71075487
   2644,    1.2696166,  -1.10000014,   4.00589895
   2645,   1.80208898,  -1.10000014,   4.13067055
   2646,   26.1864052,  -1.10000014,    3.7544136
   2647,    25.773777,  -1.10000014,   1.55035472
   2648,   26.8714886,  -1.10000014,    5.0633812
   2649,    28.306776,  -1.10000014,   2.90277863
   2650,    27.724577,  -1.10000014,   4.39270353
   2651,   23.3581409,  -1.10000014,   3.59542513
   2652,   26.2184238,  -1.10000014,   3.30607557
   2653,   0.89863807,  -1.10000014,   3.12562418
   2654,    26.166399,  -1.10000014,   1.85596251
   2655,   27.1418266,  -1.10000014,   4.08426046
   2656,   27.9752274,  -1.10000014,   3.31700325
   2657,   24.7422428,  -1.10000014,   3.54759932
   2658,   1.44779372,  -1.10000014,   3.54948568
   2659,   27.0579224,  -1.10000014,   3.70108747
   2660,   25.8258114,  -1.10000014,   3.26662135
   2661,   26.5728436,  -1.10000014,   2.10017061
   2662,    26.675333,  -1.10000014,   4.17070484
   2663,   28.0691833,  -1.10000014,   3.83980751
   2664,   23.6330547,  -1.10000014,   1.04391527
   2665,   26.6745014,  -1.10000014,   3.27282476
   2666,   25.1209908,  -1.10000014,   2.26311994
   2667,   25.3950138,  -1.10000014,   2.59267735
   2668,   27.4924278,  -1.10000014,   3.54718399
   2669,   26.2389717,  -1.10000014,   2.89544511
   2670,   26.3490715,  -1.10000014,   2.48349524
   2671,   27.2311001,  -1.10000014,   1.99484098
   2672,   28.5167141,  -1.10000014,   3.77284145
   2673,   27.0056171,  -1.10000014,   3.40046859
   2674,   25.0611954,  -1.10000014,   2.96094251
   2675,   25.8579941,  -1.10000014,   2.32047486
   2676,    26.961668,  -1.10000014,   2.34600782
   2677,   25.0412884,  -1.10000014,   3.37979341
   2678,   27.2919788,  -1.10000014,   3.19845319
   2679,   27.5975647,  -1.10000014,   2.28455305
   2680, -0.142953783,  -1.10000014,   4.22268391
   2681,   1.14828503,  -1.10000014,   3.53886366
   2682,   27.5121708,  -1.10000014,   1.62507331
   2683,   18.4002514,  -1.10000014,   7.22080851
   2684,   25.3246918,  -1.10000014,   3.57554698
   2685,   24.0424862,  -1.10000014,   5.01615763
   2686,   28.5457821,  -1.10000014,   1.92176771
   2687,   18.6010094,  -1.10000014,   7.04465008
   2688,   18.8803864,  -1.10000014,   6.80665302
   2689,   15.6620646,  -1.10000014,   8.06082058
   2690,   15.2714767,  -1.10000014,    8.1505146
   2691,   19.2627869,  -1.10000014,   6.56519938
   2692,   2.48516631,  -1.10000014,   5.95085239
   2693,   2.96787643,  -1.10000014,   6.07691479
   2694,   23.5204639,  -1.10000014,  0.425696999
   2695,   23.0449047,  -1.10000014, -0.0425841063
   2696,   6.56008482,  -1.10000014,   7.15946865
   2697,   7.01143694,  -1.10000014,    7.3261199
   2698,   7.37513208,  -1.10000014,   7.45604753
   2699,   8.44535828,  -1.10000014,     7.718256
   2700,   8.83324051,  -1.10000014,   7.82355452
   2701,   9.31171417,  -1.10000014,   7.95353556
   2702,   9.80315208,  -1.10000014,   8.07924175
   2703,   7.56861115,  -1.10000014,   7.39303732
   2704,    7.1846056,  -1.10000014,   7.20100355
   2705,   6.73922968,  -1.10000014,   6.99532938
   2706,   6.28226662,  -1.10000014,   6.77325583
   2707,    5.8286376,  -1.10000014,   6.53477907
   2708,   2.94820595,  -1.10000014,   3.64766145
   2709,   14.7886505,  -1.10000014,   8.25772381
   2710,   14.2923622,  -1.10000014,   8.35989666
   2711,   13.7925739,  -1.10000014,   8.45063782
   2712,    13.291769,  -1.10000014,   8.52550697
   2713,   12.7994385,  -1.10000014,   8.56882191
   2714,   12.3056669,  -1.10000014,   8.53617191
   2715,   11.8025436,  -1.10000014,   8.47227287
   2716,   11.2991638,  -1.10000014,    8.3916502
   2717,   10.7980366,  -1.10000014,   8.29915333
   2718,   10.2989912,  -1.10000014,   8.19468975
   2719,   30.0689507,  -1.10000014,   3.95924687
   2720,   26.0553913,  -1.10000014,  0.497796923
   2721,   27.1330395,  -1.10000014,   1.32338858
   2722,   1.26413178,  -1.10000014,   1.44875324
   2723,   22.5231972,  -1.10000014,    5.7543931
   2724,   23.3437386,  -1.10000014,   2.42287493
   2725,   30.3686695,  -1.10000014,   3.66241074
   2726,   30.0090313,  -1.10000014,   3.56528878
   2727,   23.9407063,  -1.10000014, -0.296431571
   2728,   1.87040734,  -1.10000014,   2.91122866
   2729,   2.13400865,  -1.10000014,   3.19384027
   2730,   26.8462124,  -1.10000014,   1.71282887
   2731,   27.9533615,  -1.10000014,   2.59374714
   2732,   2.98458672,  -1.10000014,   5.38231134
   2733,   23.5522556,  -1.10000014,   2.96696043
   2734,   23.9191456,  -1.10000014,   2.26372218
   2735,   25.3136253,  -1.10000014,    4.6083765
   2736,   23.4918804,  -1.10000014, -0.178284481
   2737,  0.539980173,  -1.10000014,   3.10729074
   2738,   2.96572089,  -1.10000014,   4.90665388
   2739,   24.2693043,  -1.10000014,  0.229540125
   2740,   24.6178265,  -1.10000014,  0.451843262
   2741,   0.26293841,  -1.10000014,   3.11042261
   2742,   3.25413942,  -1.10000014,   5.26346302
   2743,   28.4009228,  -1.10000014,    3.4323473
   2744,   1.87250185,  -1.10000014,   3.51987195
   2745,   2.11122632,  -1.10000014,   3.84368801
   2746,   24.8455276,  -1.10000014,  0.999170244
   2747,  0.425914705,  -1.10000014,   3.46896696
   2748,  0.772086918,  -1.10000014,   3.79609752
   2749,   25.2869797,  -1.10000014,  0.815428317
   2750,   23.8146973,  -1.10000014,   3.47618914
   2751,   27.3088665,  -1.10000014,   2.61739159
   2752,   24.0365353,  -1.10000014,   2.78512692
   2753,   27.0157623,  -1.10000014,   2.92950964
   2754,  0.684844255,  -1.10000014,   3.48194599
   2755,   1.18125343,  -1.10000014,   4.52704048
   2756,   24.2810211,  -1.10000014,   2.92366433
   2757,   24.6511669,  -1.10000014,   3.12850356
   2758,   25.4532299,  -1.10000014,   3.16556144
   2759,   25.8841553,  -1.10000014,   2.83779788
   2760,   26.5420589,  -1.10000014,   2.94729018
   2761,   22.3566093,  -1.30000019, -0.936430812
   2762,   22.2055359,  -1.30000019,  -1.86547697
   2763,   22.2810726,  -1.30000019,  -1.40095389
   2764,   22.4321442,  -1.30000019, -0.471908003
   2765,   22.5076809,  -1.30000019, -0.00738488324
   2766,   25.6209087,  -1.30000019, -0.730000138
   2767,   24.7481823,  -1.30000019,  -1.12999988
   2768,   23.4390907,  -1.30000019,  -1.73000002
   2769,   26.4936371,  -1.30000019, -0.329999715
   2770,    26.057272,  -1.30000019, -0.530000269
   2771,   25.1845455,  -1.30000019, -0.930000007
   2772,   24.3118191,  -1.30000019,  -1.32999969
   2773,   23.8754539,  -1.30000019,  -1.53000021
   2774,   23.0027275,  -1.30000019,  -1.92999995
   2775,   22.5663643,  -1.30000019,  -2.12999964
   2776,   31.1138458,  -1.21538484,   3.66431952
   2777,   30.7334976,  -1.22307706,   3.31938219
   2778,   29.9727974,  -1.23846173,    2.6295054
   2779,   29.2120972,  -1.25384629,    1.9396286
   2780,    28.831749,  -1.26153862,   1.59469116
   2781,   28.0710487,   -1.2769233,  0.904814363
   2782,   27.6906986,  -1.28461552,  0.559875965
   2783,   31.4941959,   -1.2076925,   4.00925779
   2784,   30.3531475,   -1.2307694,   2.97444367
   2785,   29.5924473,  -1.24615407,   2.28456688
   2786,   28.4513988,  -1.26923096,   1.24975276
   2787,   27.3103504,  -1.29230785,  0.214938536
   2788, -0.400072664,  -1.27272749,   1.48595059
   2789, -0.800145388,  -1.24545479,   2.97190118
   2790,  -1.06686056,  -1.22727287,    3.9625349
   2791, -0.133357525,  -1.29090929,  0.495316893
   2792, -0.266715109,  -1.28181839,  0.990633726
   2793, -0.533430278,  -1.26363659,   1.98126745
   2794, -0.666787863,  -1.25454569,   2.47658443
   2795, -0.933503032,  -1.23636377,   3.46721816
   2796,   -1.2002182,  -1.21818197,   4.45785189
   2797,  -1.33357573,  -1.20909107,   4.95316887
   2798,   1.58400011,  -1.30000019, 2.09283826e-08
   2799,   2.11199999,  -1.30000019, 2.09283826e-08
   2800,   1.05600011,  -1.30000019, 2.09283826e-08
   2801,  0.528000057,  -1.30000019, 2.09283826e-08
   2802,    2.6400001,  -1.30000019,  0.459475845
   2803,   24.1252441,  -1.50000024,  -0.63568604
   2804,   1.53322041,  -1.50000024,   2.13634729
   2805,   1.61160481,  -1.50000024,   2.71459413
   2806,   1.59160483,  -1.50000024,     3.805933
   2807,   1.67317796,  -1.50000024,   4.78305197
   2808,   1.58176529,  -1.50000024,   5.83872652
   2809,   2.97144723,  -1.50000024,   5.68265629
   2810,   2.64687014,  -1.50000024,   4.56492901
   2811,   2.65984368,  -1.50000024,   3.91479015
   2812,  0.618446529,  -1.50000024,   1.01297438
   2813,  0.573070824,  -1.50000024,   2.02990246
   2814,  0.493135035,  -1.50000024,   2.68910813
   2815,  0.373334646,  -1.50000024,   3.85958004
   2816,  0.733100653,  -1.50000024,   4.88439846
   2817, -0.466453254,  -1.50000024,   3.61583281
   2818, -0.241793469,  -1.50000024,   4.70594215
   2819,    3.9115932,  -1.50000024,   5.63621378
   2820,   3.87119627,  -1.50000024,   4.86954355
   2821,    4.9583292,  -1.50000024,   5.96255016
   2822,   6.08658552,  -1.50000024,   6.98315096
   2823,   19.5087242,  -1.50000024,   6.88080978
   2824,   20.4592285,  -1.50000024,   5.65625668
   2825,   21.5597668,  -1.50000024,   5.93120432
   2826,   21.6088905,  -1.50000024,   4.55805874
   2827,   22.8740616,  -1.50000024,   5.81802511
   2828,   22.6083355,  -1.50000024,   4.80770254
   2829,   23.0221329,  -1.50000024,   3.67325521
   2830,   23.8848248,  -1.50000024,   5.58989573
   2831,   23.6007481,  -1.50000024,   4.82530975
   2832,   23.6084442,  -1.50000024,   3.81018949
   2833,   23.7110634,  -1.50000024,   2.60497975
   2834,   23.7952423,  -1.50000024,   1.67340219
   2835,   23.8667736,  -1.50000024,    0.7647385
   2836,   23.4147282,  -1.50000024, -0.627828121
   2837,   23.4187622,  -1.50000024,  -1.38126147
   2838,   24.4466953,  -1.50000024,  0.763258636
   2839,   24.7878304,  -1.50000024,   1.93648517
   2840,   24.5070534,  -1.50000024,   2.77824092
   2841,   24.5568123,  -1.50000024,   4.60378551
   2842,   25.8161507,  -1.50000024,   4.82684946
   2843,   25.7313614,  -1.50000024,   3.72213721
   2844,   25.5791054,  -1.50000024,   2.85871649
   2845,   25.4641609,  -1.50000024,   1.93335426
   2846,   25.5017052,  -1.50000024,  0.593173623
   2847,   25.4850101,  -1.50000024, -0.340552807
   2848,   26.7582569,  -1.50000024,   4.60959291
   2849,   26.6327972,  -1.50000024,     3.736624
   2850,   26.7264557,  -1.50000024,   2.68017602
   2851,   26.4712925,  -1.50000024,   1.44954395
   2852,   26.4077549,  -1.50000024,  0.765896261
   2853,   27.8401108,  -1.50000024,   4.83056879
   2854,   27.6101971,  -1.50000024,    3.9531858
   2855,   27.6375809,  -1.50000024,   2.92739224
   2856,    27.888586,  -1.50000024,   1.93744719
   2857,   28.9607887,  -1.50000024,   3.61518145
   2858,   28.6238842,  -1.50000024,   2.58006024
   2859,   29.5940208,  -1.50000024,   3.97807026
   2860,   23.2973976,  -1.50000024,  0.194152907
   2861,   1.86105704,  -1.50000024,  0.882555842
   2862,   2.04425025,  -1.50000024,  0.570465028
   2863,   23.0021019,  -1.50000024,  -1.56110418
   2864, -0.273747027,  -1.50000024,   3.09905744
   2865,   25.0683746,  -1.50000024, -0.554491162
   2866,   22.5922356,  -1.50000024,  -1.72610772
   2867,   22.6797771,  -1.50000024, -0.859469473
   2868,   22.6322556,  -1.50000024,  -1.29779053
   2869,   22.7320347,  -1.50000024, -0.426647544
   2870,   22.8175888,  -1.50000024, 0.0189242233
   2871,   23.7636909,  -1.50000024,  0.204439968
   2872,   24.2332649,  -1.50000024, -0.981791854
   2873,    24.647995,  -1.50000024, -0.769629598
   2874,   25.8957806,  -1.50000024, -0.125614047
   2875,   23.8331795,  -1.50000024,  -1.19384265
   2876,   26.2910213,  -1.50000024, 0.0982466862
   2877,   5.60751295,  -1.50000024,   6.79769373
   2878,   21.5753193,  -1.50000024,   6.32871485
   2879,   27.3552666,  -1.50000024,   4.94693851
   2880,    20.500515,  -1.50000024,    6.4095974
   2881,   19.9601402,  -1.50000024,   6.68030596
   2882,   28.3206196,  -1.50000024,    4.7223196
   2883,   29.7562637,  -1.50000024,   4.42184114
   2884,    22.517374,  -1.50000024,   6.16519642
   2885,   25.9210243,  -1.50000024,   5.29775429
   2886,   30.6881294,  -1.50000024,   4.26507664
   2887,   19.1824417,  -1.50000024,   7.03258705
   2888,    31.132103,  -1.50000024,   4.14780188
   2889,   22.0516548,  -1.50000024,   6.21684551
   2890,   25.4578953,  -1.50000024,   5.41605949
   2891,   29.2812347,  -1.50000024,   4.51340914
   2892,   30.2279835,  -1.50000024,   4.34645844
   2893,   21.0882397,  -1.50000024,   6.37170839
   2894,   26.3900757,  -1.50000024,   5.17813778
   2895,   28.8002033,  -1.50000024,   4.61836958
   2896,   23.3987312,  -1.50000024,   5.90278482
   2897,   24.9795837,  -1.50000024,   5.51013803
   2898, -0.847497582,  -1.50000024,   5.07581663
   2899,  0.659352183,  -1.50000024,   5.40002632
   2900,  0.143347651,  -1.50000024,   5.30089998
   2901,   4.55342007,  -1.50000024,    6.2948451
   2902,   5.11697626,  -1.50000024,   6.58711052
   2903,   3.96246481,  -1.50000024,    6.2179718
   2904,   3.46443081,  -1.50000024,   6.15925312
   2905,  -0.35714075,  -1.50000024,   5.19151402
   2906,   21.9790115,  -1.50000024,   4.15315104
   2907,   22.9712601,  -1.50000024,   2.24650574
   2908,   2.40117002,  -1.50000024,   2.85389566
   2909,   2.12843156,  -1.50000024,   2.50382233
   2910,    22.433321,  -1.50000024,   3.72838426
   2911,   4.61062288,  -1.50000024,   5.60160589
   2912,   4.22469139,  -1.50000024,   5.27134848
   2913,   3.54513288,  -1.50000024,   4.45882988
   2914,   22.7634754,  -1.50000024,   2.69189477
   2915,   20.8639278,  -1.50000024,   5.33508873
   2916,   22.5804501,  -1.50000024,   3.16152048
   2917,   20.1009445,  -1.50000024,   6.00921822
   2918,   23.1898918,  -1.50000024,   1.81165373
   2919,   1.86419344,  -1.50000024,   2.26978016
   2920,   5.38035631,  -1.50000024,   6.27278662
   2921,  0.231988147,  -1.50000024,   1.01233041
   2922, -0.0803270042,  -1.50000024,    2.1110661
   2923,  0.198287413,  -1.50000024,   1.60069323
   2924, -0.253155947,  -1.50000024,   2.56563187
   2925, -0.724629402,  -1.50000024,   4.58641863
   2926,  -0.60391438,  -1.50000024,   4.09985781
   2927,   26.6690464,  -1.50000024,  0.339344949
   2928,   30.5374489,  -1.50000024,   3.49678516
   2929,   29.7118759,  -1.50000024,    2.9751308
   2930,   28.1723175,  -1.50000024,   1.58884037
   2931,   30.8529186,  -1.50000024,   3.81104112
   2932,   27.0407352,  -1.50000024,  0.625197709
   2933,    29.302721,  -1.50000024,   2.62163353
   2934,   27.7953262,  -1.50000024,    1.2604537
   2935,   27.4155235,  -1.50000024,  0.936209857
   2936,   28.9204578,  -1.50000024,   2.26410246
   2937,    30.147213,  -1.50000024,   3.24009299
   2938,  0.391124099,  -1.50000024,  0.521130741
   2939,   1.50719607,  -1.50000024,  0.527178824
   2940,    23.075386,  -1.50000024, -0.348077357
   2941,   23.0377541,  -1.50000024,   3.23793101
   2942,   1.30363238,  -1.50000024,   2.57176495
   2943,  0.727429152,  -1.50000024,   1.35140073
   2944,   24.0834217,  -1.50000024,  0.504376352
   2945,   22.9693604,  -1.50000024,   6.09422207
   2946,   23.1071148,  -1.50000024,   5.57882738
   2947,   1.52330375,  -1.50000024,  0.937852025
   2948,   22.7149544,  -1.50000024,    4.2214632
   2949,   24.9316597,  -1.50000024, -0.197619438
   2950,   3.57356906,  -1.50000024,   5.10020447
   2951,   22.0041485,  -1.50000024,   5.66337013
   2952,   28.1922398,  -1.50000024,   4.28025532
   2953,   23.3991966,  -1.50000024,  -1.02893496
   2954,   19.6868954,  -1.50000024,   6.30737638
   2955,   23.0152683,  -1.50000024,  -1.16692185
   2956,   23.0441628,  -1.50000024, -0.748868704
   2957,    21.161768,  -1.50000024,   5.77448988
   2958,   23.7754688,  -1.50000024, -0.869778216
   2959, 0.0568119399,  -1.50000024,   2.60198903
   2960,   25.3969631,  -1.50000024,   4.97726297
   2961,   24.4775772,  -1.50000024,   5.57102346
   2962,    30.492054,  -1.50000024,   3.93267107
   2963,   28.6587219,  -1.50000024,   4.18429756
   2964,   29.1328335,  -1.50000024,   4.07202625
   2965,   24.9553642,  -1.50000024,   5.04976225
   2966,   23.5607948,  -1.50000024,   2.03282619
   2967,   1.27532399,  -1.50000024,   5.48969221
   2968,   4.37699366,  -1.50000024,   5.83159542
   2969,  0.250044346,  -1.50000024,   4.80381775
   2970,   25.7065048,  -1.50000024,  0.254533648
   2971,   25.3257713,  -1.50000024, 0.0195257161
   2972,   2.66996527,  -1.50000024,   3.24395466
   2973,   1.70060194,  -1.50000024,   1.69446886
   2974,   21.2506943,  -1.50000024,    4.9583869
   2975,   23.4111671,  -1.50000024,    1.3981781
   2976,   26.7631836,  -1.50000024,   1.03705788
   2977,   29.4501724,  -1.50000024,   3.41446018
   2978,   28.2556248,  -1.50000024,   2.25350356
   2979, 0.0967634171,  -1.50000024,   3.38350511
   2980,  0.937330782,  -1.50000024,  0.616338372
   2981,   23.1634979,  -1.50000024,    2.8269453
   2982,   3.42436743,  -1.50000024,   5.70182085
   2983,   1.63471127,  -1.50000024,   1.31070507
   2984,   2.39441514,  -1.50000024,    3.5407052
   2985,   1.39068282,  -1.50000024,   1.70224297
   2986,   24.5059528,  -1.50000024,   5.07077026
   2987,   1.21071804,  -1.50000024,     4.931674
   2988,    24.029377,  -1.50000024,   1.35207748
   2989,   23.9744873,  -1.50000024, 0.0521450229
   2990,  0.336743742,  -1.50000024,   4.30489874
   2991,   23.4397717,  -1.50000024,   3.30917645
   2992,   24.9611855,  -1.50000024,   4.57087564
   2993,   25.1514568,  -1.50000024,  0.353050768
   2994,   1.96044457,  -1.50000024,   5.29448271
   2995,    1.1917125,  -1.50000024,   2.00354099
   2996,   24.5256042,  -1.50000024, -0.419808269
   2997,    23.392374,  -1.50000024,   5.24716187
   2998,   22.3165092,  -1.50000024,   5.17104006
   2999,    23.255003,  -1.50000024,   4.14564657
   3000,   3.25738883,  -1.50000024,   4.68284464
   3001,   21.5967178,  -1.50000024,   5.30640268
   3002,   24.1638565,  -1.50000024,    1.9466933
   3003,   20.6984177,  -1.50000024,   5.93011713
   3004,  0.263619453,  -1.50000024,   2.34499145
   3005, -0.0438715778,  -1.50000024,   3.77167392
   3006,   24.2450314,  -1.50000024,   2.50207138
   3007,  0.923492968,  -1.50000024,   1.71310186
   3008,   24.3949013,  -1.50000024, -0.0883797333
   3009,  0.886067092,  -1.50000024,   2.47785735
   3010,    24.976656,  -1.50000024,  0.673760891
   3011,   2.36284995,  -1.50000024,   4.20253086
   3012,   24.1580582,  -1.50000024,   4.57462215
   3013,  0.846562624,  -1.50000024,   4.30709362
   3014,   2.52587771,  -1.50000024,   5.53017759
   3015,   22.9728241,  -1.50000024,   5.01790857
   3016,   22.7189121,  -1.50000024,   5.37152004
   3017,   23.9216442,  -1.50000024,   3.11773872
   3018,    21.955616,  -1.50000024,   4.88656807
   3019,   23.6951408,  -1.50000024, -0.614511073
   3020,   2.32791829,  -1.50000024,    4.8825922
   3021,  0.148210913,  -1.50000024,   2.87239671
   3022,   25.6188431,  -1.50000024,   4.27587223
   3023,   29.0054359,  -1.50000024,   2.93936682
   3024,   2.69134021,  -1.50000024,   5.17697144
   3025,   1.11865258,  -1.50000024,   1.08552611
   3026,   24.5024357,  -1.50000024,   2.23224664
   3027,   25.7796021,  -1.50000024,  0.871426105
   3028,   24.5363026,  -1.50000024,   4.14344645
   3029,   22.8342533,  -1.50000024,   4.54550838
   3030,   28.6707935,  -1.50000024,   3.20276141
   3031,   1.20335662,  -1.50000024,   2.96364713
   3032,   25.3615513,  -1.50000024,    1.1909616
   3033,   24.2826099,  -1.50000024,   3.67715335
   3034,   24.2245178,  -1.50000024,   4.24515343
   3035,   2.95127869,  -1.50000024,   4.29615068
   3036,   1.47749603,  -1.50000024,   4.35899496
   3037,   2.03911781,  -1.50000024,   4.50665331
   3038,   26.1827755,  -1.50000024,   4.22958565
   3039,   24.8008022,  -1.50000024,   2.56156778
   3040,   25.0289154,  -1.50000024,     4.023664
   3041,   23.7435551,  -1.50000024,   4.40545034
   3042,   24.7801533,  -1.50000024,  0.128859505
   3043,    26.104353,  -1.50000024,    1.1663394
   3044,   22.3029251,  -1.50000024,   4.50783205
   3045,   1.63803387,  -1.50000024,   3.26714826
   3046,   1.99831462,  -1.50000024,   5.83154392
   3047,   27.2414188,  -1.50000024,   4.50455809
   3048,   24.4175835,  -1.50000024,   1.64063168
   3049,   3.23891258,  -1.50000024,    4.0534811
   3050,   1.40306258,  -1.50000024,   3.11532617
   3051,    23.958622,  -1.50000024,   4.03320789
   3052,   24.6580677,  -1.50000024,   1.32773936
   3053,   24.2495975,  -1.50000024,   1.05525875
   3054,   25.0763512,  -1.50000024,   1.60019076
   3055,   23.1694889,  -1.50000024,   4.63066578
   3056,   24.2899513,  -1.50000024,   3.21567059
   3057,   26.2782211,  -1.50000024,   4.71075487
   3058,    1.2696166,  -1.50000024,   4.00589895
   3059,   1.80208898,  -1.50000024,   4.13067055
   3060,   26.1864052,  -1.50000024,    3.7544136
   3061,    25.773777,  -1.50000024,   1.55035472
   3062,   26.8714886,  -1.50000024,    5.0633812
   3063,    28.306776,  -1.50000024,   2.90277863
   3064,    27.724577,  -1.50000024,   4.39270353
   3065,   23.3581409,  -1.50000024,   3.59542513
   3066,   26.2184238,  -1.50000024,   3.30607557
   3067,   0.89863807,  -1.50000024,   3.12562442
   3068,    26.166399,  -1.50000024,   1.85596251
   3069,   27.1418266,  -1.50000024,   4.08426046
   3070,   27.9752274,  -1.50000024,   3.31700325
   3071,   24.7422428,  -1.50000024,   3.54759932
   3072,   1.44779372,  -1.50000024,   3.54948568
   3073,   27.0579224,  -1.50000024,   3.70108747
   3074,   25.8258114,  -1.50000024,   3.26662135
   3075,   26.5728436,  -1.50000024,   2.10017061
   3076,    26.675333,  -1.50000024,   4.17070484
   3077,   28.0691833,  -1.50000024,   3.83980751
   3078,   23.6330547,  -1.50000024,   1.04391527
   3079,   26.6745014,  -1.50000024,   3.27282453
   3080,   25.1209908,  -1.50000024,   2.26311994
   3081,   25.3950138,  -1.50000024,   2.59267735
   3082,   27.4924278,  -1.50000024,   3.54718399
   3083,   26.2389717,  -1.50000024,   2.89544511
   3084,   26.3490715,  -1.50000024,   2.48349524
   3085,   27.2311001,  -1.50000024,   1.99484098
   3086,   28.5167141,  -1.50000024,   3.77284145
   3087,   27.0056171,  -1.50000024,   3.40046859
   3088,   25.0611954,  -1.50000024,   2.96094251
   3089,   25.8579941,  -1.50000024,   2.32047486
   3090,    26.961668,  -1.50000024,   2.34600782
   3091,   25.0412884,  -1.50000024,   3.37979341
   3092,   27.2919788,  -1.50000024,   3.19845319
   3093,   27.5975647,  -1.50000024,   2.28455305
   3094, -0.142953783,  -1.50000024,   4.22268391
   3095,   1.14828503,  -1.50000024,    3.5388639
   3096,   27.5121708,  -1.50000024,   1.62507331
   3097,   18.4002514,  -1.50000024,   7.22080851
   3098,   25.3246918,  -1.50000024,   3.57554698
   3099,   24.0424862,  -1.50000024,   5.01615763
   3100,   28.5457821,  -1.50000024,   1.92176771
   3101,   18.6010094,  -1.50000024,   7.04465008
   3102,   18.8803864,  -1.50000024,   6.80665302
   3103,   15.6620646,  -1.50000024,   8.06082058
   3104,   15.2714767,  -1.50000024,    8.1505146
   3105,   19.2627869,  -1.50000024,   6.56519938
   3106,   2.48516631,  -1.50000024,   5.95085239
   3107,   2.96787643,  -1.50000024,   6.07691479
   3108,   23.5204639,  -1.50000024,  0.425696999
   3109,   23.0449047,  -1.50000024, -0.0425841138
   3110,   6.56008482,  -1.50000024,   7.15946865
   3111,   7.01143694,  -1.50000024,    7.3261199
   3112,   7.37513208,  -1.50000024,   7.45604753
   3113,   8.44535828,  -1.50000024,     7.718256
   3114,   8.83324051,  -1.50000024,   7.82355452
   3115,   9.31171417,  -1.50000024,   7.95353556
   3116,   9.80315208,  -1.50000024,   8.07924175
   3117,   7.56861115,  -1.50000024,   7.39303732
   3118,    7.1846056,  -1.50000024,   7.20100355
   3119,   6.73922968,  -1.50000024,   6.99532938
   3120,   6.28226662,  -1.50000024,   6.77325583
   3121,    5.8286376,  -1.50000024,   6.53477907
   3122,   2.94820595,  -1.50000024,   3.64766145
   3123,   14.7886505,  -1.50000024,   8.25772381
   3124,   14.2923622,  -1.50000024,   8.35989666
   3125,   13.7925739,  -1.50000024,   8.45063782
   3126,    13.291769,  -1.50000024,   8.52550697
   3127,   12.7994385,  -1.50000024,   8.56882191
   3128,   12.3056669,  -1.50000024,   8.53617191
   3129,   11.8025436,  -1.50000024,   8.47227287
   3130,   11.2991638,  -1.50000024,    8.3916502
   3131,   10.7980366,  -1.50000024,   8.29915333
   3132,   10.2989912,  -1.50000024,   8.19468975
   3133,   30.0689507,  -1.50000024,   3.95924687
   3134,   26.0553913,  -1.50000024,  0.497796923
   3135,   27.1330395,  -1.50000024,   1.32338858
   3136,   1.26413178,  -1.50000024,   1.44875324
   3137,   22.5231972,  -1.50000024,    5.7543931
   3138,   23.3437386,  -1.50000024,   2.42287493
   3139,   30.3686695,  -1.50000024,   3.66241074
   3140,   30.0090313,  -1.50000024,   3.56528878
   3141,   23.9407063,  -1.50000024, -0.296431571
   3142,   1.87040734,  -1.50000024,   2.91122866
   3143,   2.13400865,  -1.50000024,   3.19384027
   3144,   26.8462124,  -1.50000024,   1.71282887
   3145,   27.9533615,  -1.50000024,   2.59374714
   3146,   2.98458672,  -1.50000024,   5.38231134
   3147,   23.5522556,  -1.50000024,   2.96696043
   3148,   23.9191456,  -1.50000024,   2.26372218
   3149,   25.3136253,  -1.50000024,    4.6083765
   3150,   23.4918804,  -1.50000024, -0.178284481
   3151,  0.539980173,  -1.50000024,   3.10729074
   3152,   2.96572089,  -1.50000024,   4.90665388
   3153,   24.2693043,  -1.50000024,   0.22954011
   3154,   24.6178265,  -1.50000024,  0.451843262
   3155,   0.26293841,  -1.50000024,   3.11042261
   3156,   3.25413942,  -1.50000024,   5.26346302
   3157,   28.4009228,  -1.50000024,    3.4323473
   3158,   1.87250185,  -1.50000024,   3.51987195
   3159,   2.11122632,  -1.50000024,   3.84368801
   3160,   24.8455276,  -1.50000024,  0.999170244
   3161,  0.425914705,  -1.50000024,   3.46896696
   3162,  0.772086918,  -1.50000024,   3.79609752
   3163,   25.2869797,  -1.50000024,  0.815428317
   3164,   23.8146973,  -1.50000024,   3.47618914
   3165,   27.3088665,  -1.50000024,   2.61739159
   3166,   24.0365353,  -1.50000024,   2.78512692
   3167,   27.0157623,  -1.50000024,   2.92950964
   3168,  0.684844255,  -1.50000024,   3.48194599
   3169,   1.18125343,  -1.50000024,   4.52704048
   3170,   24.2810211,  -1.50000024,   2.92366433
   3171,   24.6511669,  -1.50000024,   3.12850356
   3172,   25.4532299,  -1.50000024,   3.16556144
   3173,   25.8841553,  -1.50000024,   2.83779788
   3174,   26.5420589,  -1.50000024,   2.94729018
   3175,   24.1252441,    1.0999999,  -0.63568604
   3176,   1.53322041,    1.0999999,   2.13634729
   3177,   1.61160481,    1.0999999,   2.71459413
   3178,   1.59160483,    1.0999999,     3.805933
   3179,   1.67317796,    1.0999999,   4.78305197
   3180,   1.58176529,    1.0999999,   5.83872652
   3181,   2.97144723,    1.0999999,   5.68265629
   3182,   2.64687014,    1.0999999,   4.56492901
   3183,   2.65984368,    1.0999999,   3.91479015
   3184,  0.618446529,    1.0999999,   1.01297438
   3185,  0.573070824,    1.0999999,   2.02990246
   3186,  0.493135035,    1.0999999,   2.68910813
   3187,  0.373334646,    1.0999999,   3.85958004
   3188,  0.733100653,    1.0999999,   4.88439846
   3189, -0.466453254,    1.0999999,   3.61583281
   3190, -0.241793469,    1.0999999,   4.70594215
   3191,   3.91159296,    1.0999999,   5.63621378
   3192,   3.87119627,    1.0999999,   4.86954355
   3193,    4.9583292,    1.0999999,   5.96255016
   3194,   6.08658552,    1.0999999,   6.98315096
   3195,   19.5087242,    1.0999999,   6.88080978
   3196,   20.4592285,    1.0999999,   5.65625668
   3197,   21.5597668,    1.0999999,   5.93120432
   3198,   21.6088905,    1.0999999,   4.55805874
   3199,   22.8740616,    1.0999999,   5.81802511
   3200,   22.6083355,    1.0999999,   4.80770254
   3201,   23.0221329,    1.0999999,   3.67325521
   3202,   23.8848248,    1.0999999,    5.5898962
   3203,   23.6007481,    1.0999999,   4.82530975
   3204,   23.6084442,    1.0999999,   3.81018949
   3205,   23.7110634,    1.0999999,   2.60497975
   3206,   23.7952423,    1.0999999,   1.67340219
   3207,   23.8667736,    1.0999999,    0.7647385
   3208,   23.4147282,    1.0999999, -0.627828121
   3209,   23.4187622,    1.0999999,  -1.38126147
   3210,   24.4466953,    1.0999999,  0.763258636
   3211,   24.7878304,    1.0999999,   1.93648517
   3212,   24.5070534,    1.0999999,   2.77824092
   3213,   24.5568123,    1.0999999,   4.60378551
   3214,   25.8161507,    1.0999999,   4.82684946
   3215,   25.7313614,    1.0999999,   3.72213721
   3216,   25.5791054,    1.0999999,   2.85871649
   3217,   25.4641609,    1.0999999,   1.93335426
   3218,   25.5017052,    1.0999999,  0.593173623
   3219,   25.4850101,    1.0999999, -0.340552807
   3220,   26.7582569,    1.0999999,   4.60959291
   3221,   26.6327972,    1.0999999,     3.736624
   3222,   26.7264557,    1.0999999,   2.68017602
   3223,   26.4712925,    1.0999999,   1.44954395
   3224,   26.4077549,    1.0999999,  0.765896261
   3225,   27.8401108,    1.0999999,   4.83056879
   3226,   27.6101971,    1.0999999,    3.9531858
   3227,   27.6375809,    1.0999999,   2.92739224
   3228,    27.888586,    1.0999999,   1.93744719
   3229,   28.9607887,    1.0999999,   3.61518145
   3230,   28.6238842,    1.0999999,   2.58006024
   3231,   29.5940208,    1.0999999,   3.97807026
   3232,   23.2973976,    1.0999999,  0.194152921
   3233,   1.86105704,    1.0999999,  0.882555842
   3234,   2.04425025,    1.0999999,  0.570465028
   3235,   23.0021019,    1.0999999,  -1.56110418
   3236, -0.273747027,    1.0999999,   3.09905767
   3237,   25.0683746,    1.0999999, -0.554491162
   3238,   22.5922356,    1.0999999,  -1.72610772
   3239,   22.6797771,    1.0999999, -0.859469473
   3240,   22.6322556,    1.0999999,  -1.29779053
   3241,   22.7320347,    1.0999999, -0.426647544
   3242,   22.8175888,    1.0999999, 0.0189242288
   3243,   23.7636909,    1.0999999,  0.204439968
   3244,   24.2332649,    1.0999999, -0.981791854
   3245,    24.647995,    1.0999999, -0.769629598
   3246,   25.8957806,    1.0999999, -0.125614032
   3247,   23.8331795,    1.0999999,  -1.19384265
   3248,   26.2910213,    1.0999999, 0.0982466862
   3249,   5.60751295,    1.0999999,   6.79769373
   3250,   21.5753193,    1.0999999,   6.32871485
   3251,   27.3552666,    1.0999999,   4.94693851
   3252,    20.500515,    1.0999999,    6.4095974
   3253,   19.9601402,    1.0999999,   6.68030596
   3254,   28.3206196,    1.0999999,    4.7223196
   3255,   29.7562637,    1.0999999,   4.42184114
   3256,    22.517374,    1.0999999,   6.16519642
   3257,   25.9210243,    1.0999999,   5.29775429
   3258,   30.6881294,    1.0999999,   4.26507664
   3259,   19.1824417,    1.0999999,   7.03258705
   3260,    31.132103,    1.0999999,   4.14780188
   3261,   22.0516548,    1.0999999,   6.21684551
   3262,   25.4578953,    1.0999999,   5.41605949
   3263,   29.2812347,    1.0999999,   4.51340914
   3264,   30.2279835,    1.0999999,   4.34645844
   3265,   21.0882397,    1.0999999,   6.37170839
   3266,   26.3900757,    1.0999999,   5.17813778
   3267,   28.8002033,    1.0999999,   4.61836958
   3268,   23.3987312,    1.0999999,   5.90278482
   3269,   24.9795837,    1.0999999,   5.51013803
   3270, -0.847497582,    1.0999999,   5.07581663
   3271,  0.659352183,    1.0999999,   5.40002632
   3272,  0.143347651,    1.0999999,   5.30089998
   3273,   4.55342007,    1.0999999,    6.2948451
   3274,   5.11697626,    1.0999999,   6.58711052
   3275,   3.96246481,    1.0999999,    6.2179718
   3276,   3.46443081,    1.0999999,   6.15925312
   3277,  -0.35714075,    1.0999999,   5.19151402
   3278,   21.9790115,    1.0999999,   4.15315104
   3279,   22.9712601,    1.0999999,   2.24650574
   3280,   2.40117002,    1.0999999,   2.85389566
   3281,   2.12843156,    1.0999999,   2.50382233
   3282,    22.433321,    1.0999999,   3.72838426
   3283,   4.61062288,    1.0999999,   5.60160589
   3284,   4.22469139,    1.0999999,   5.27134848
   3285,   3.54513288,    1.0999999,   4.45882988
   3286,   22.7634754,    1.0999999,   2.69189477
   3287,   20.8639278,    1.0999999,   5.33508873
   3288,   22.5804501,    1.0999999,   3.16152048
   3289,   20.1009445,    1.0999999,   6.00921822
   3290,   23.1898918,    1.0999999,   1.81165373
   3291,   1.86419344,    1.0999999,   2.26978016
   3292,   5.38035631,    1.0999999,   6.27278662
   3293,  0.231988147,    1.0999999,   1.01233041
   3294, -0.0803270042,    1.0999999,    2.1110661
   3295,  0.198287398,    1.0999999,   1.60069323
   3296, -0.253155947,    1.0999999,   2.56563187
   3297, -0.724629402,    1.0999999,   4.58641863
   3298,  -0.60391438,    1.0999999,   4.09985781
   3299,   26.6690464,    1.0999999,  0.339344949
   3300,   30.5374489,    1.0999999,   3.49678516
   3301,   29.7118759,    1.0999999,    2.9751308
   3302,   28.1723175,    1.0999999,   1.58884037
   3303,   30.8529186,    1.0999999,   3.81104112
   3304,   27.0407352,    1.0999999,  0.625197709
   3305,    29.302721,    1.0999999,   2.62163353
   3306,   27.7953262,    1.0999999,    1.2604537
   3307,   27.4155235,    1.0999999,  0.936209857
   3308,   28.9204578,    1.0999999,   2.26410246
   3309,    30.147213,    1.0999999,   3.24009299
   3310,  0.391124099,    1.0999999,  0.521130741
   3311,   1.50719607,    1.0999999,  0.527178824
   3312,    23.075386,    1.0999999, -0.348077357
   3313,   23.0377541,    1.0999999,   3.23793101
   3314,   1.30363238,    1.0999999,   2.57176495
   3315,  0.727429152,    1.0999999,   1.35140073
   3316,   24.0834217,    1.0999999,  0.504376352
   3317,   22.9693604,    1.0999999,   6.09422207
   3318,   23.1071148,    1.0999999,   5.57882738
   3319,   1.52330375,    1.0999999,  0.937852025
   3320,   22.7149544,    1.0999999,    4.2214632
   3321,   24.9316597,    1.0999999, -0.197619423
   3322,   3.57356906,    1.0999999,   5.10020447
   3323,   22.0041485,    1.0999999,   5.66337013
   3324,   28.1922398,    1.0999999,   4.28025532
   3325,   23.3991966,    1.0999999,  -1.02893496
   3326,   19.6868954,    1.0999999,   6.30737638
   3327,   23.0152683,    1.0999999,  -1.16692185
   3328,   23.0441628,    1.0999999, -0.748868704
   3329,    21.161768,    1.0999999,   5.77448988
   3330,   23.7754688,    1.0999999, -0.869778216
   3331, 0.0568119399,    1.0999999,   2.60198903
   3332,   25.3969631,    1.0999999,   4.97726297
   3333,   24.4775772,    1.0999999,   5.57102346
   3334,    30.492054,    1.0999999,   3.93267107
   3335,   28.6587219,    1.0999999,   4.18429756
   3336,   29.1328335,    1.0999999,   4.07202625
   3337,   24.9553642,    1.0999999,   5.04976225
   3338,   23.5607948,    1.0999999,   2.03282619
   3339,   1.27532399,    1.0999999,   5.48969221
   3340,   4.37699366,    1.0999999,   5.83159542
   3341,  0.250044346,    1.0999999,   4.80381775
   3342,   25.7065048,    1.0999999,  0.254533648
   3343,   25.3257713,    1.0999999,  0.019525731
   3344,   2.66996527,    1.0999999,   3.24395466
   3345,   1.70060194,    1.0999999,   1.69446886
   3346,   21.2506943,    1.0999999,    4.9583869
   3347,   23.4111671,    1.0999999,    1.3981781
   3348,   26.7631836,    1.0999999,   1.03705788
   3349,   29.4501724,    1.0999999,   3.41446018
   3350,   28.2556248,    1.0999999,   2.25350356
   3351, 0.0967634171,    1.0999999,   3.38350511
   3352,  0.937330782,    1.0999999,  0.616338372
   3353,   23.1634979,    1.0999999,    2.8269453
   3354,   3.42436743,    1.0999999,   5.70182085
   3355,   1.63471127,    1.0999999,   1.31070507
   3356,   2.39441514,    1.0999999,    3.5407052
   3357,   1.39068282,    1.0999999,   1.70224297
   3358,   24.5059528,    1.0999999,   5.07077026
   3359,   1.21071804,    1.0999999,     4.931674
   3360,    24.029377,    1.0999999,   1.35207748
   3361,   23.9744873,    1.0999999, 0.0521450378
   3362,  0.336743742,    1.0999999,   4.30489874
   3363,   23.4397717,    1.0999999,   3.30917645
   3364,   24.9611855,    1.0999999,   4.57087564
   3365,   25.1514568,    1.0999999,  0.353050768
   3366,   1.96044457,    1.0999999,   5.29448271
   3367,    1.1917125,    1.0999999,   2.00354099
   3368,   24.5256042,    1.0999999, -0.419808269
   3369,    23.392374,    1.0999999,   5.24716187
   3370,   22.3165092,    1.0999999,   5.17104006
   3371,    23.255003,    1.0999999,   4.14564657
   3372,   3.25738883,    1.0999999,   4.68284464
   3373,   21.5967178,    1.0999999,   5.30640268
   3374,   24.1638565,    1.0999999,    1.9466933
   3375,   20.6984177,    1.0999999,   5.93011713
   3376,  0.263619453,    1.0999999,   2.34499145
   3377, -0.0438715778,    1.0999999,   3.77167392
   3378,   24.2450314,    1.0999999,   2.50207138
   3379,  0.923492968,    1.0999999,   1.71310186
   3380,   24.3949013,    1.0999999, -0.0883797109
   3381,  0.886067092,    1.0999999,   2.47785735
   3382,    24.976656,    1.0999999,  0.673760891
   3383,   2.36284995,    1.0999999,   4.20253086
   3384,   24.1580582,    1.0999999,   4.57462215
   3385,  0.846562624,    1.0999999,   4.30709362
   3386,   2.52587771,    1.0999999,   5.53017759
   3387,   22.9728241,    1.0999999,   5.01790857
   3388,   22.7189121,    1.0999999,   5.37152004
   3389,   23.9216442,    1.0999999,   3.11773872
   3390,    21.955616,    1.0999999,   4.88656807
   3391,   23.6951408,    1.0999999, -0.614511073
   3392,   2.32791829,    1.0999999,    4.8825922
   3393,  0.148210913,    1.0999999,   2.87239671
   3394,   25.6188431,    1.0999999,   4.27587223
   3395,   29.0054359,    1.0999999,   2.93936682
   3396,   2.69134021,    1.0999999,   5.17697144
   3397,   1.11865258,    1.0999999,   1.08552611
   3398,   24.5024357,    1.0999999,   2.23224664
   3399,   25.7796021,    1.0999999,  0.871426105
   3400,   24.5363026,    1.0999999,   4.14344645
   3401,   22.8342533,    1.0999999,   4.54550838
   3402,   28.6707935,    1.0999999,   3.20276141
   3403,   1.20335662,    1.0999999,   2.96364713
   3404,   25.3615513,    1.0999999,    1.1909616
   3405,   24.2826099,    1.0999999,   3.67715335
   3406,   24.2245178,    1.0999999,   4.24515343
   3407,   2.95127869,    1.0999999,   4.29615068
   3408,   1.47749603,    1.0999999,   4.35899496
   3409,   2.03911781,    1.0999999,   4.50665331
   3410,   26.1827755,    1.0999999,   4.22958565
   3411,   24.8008022,    1.0999999,   2.56156778
   3412,   25.0289154,    1.0999999,     4.023664
   3413,   23.7435551,    1.0999999,   4.40545034
   3414,   24.7801533,    1.0999999,  0.128859505
   3415,    26.104353,    1.0999999,    1.1663394
   3416,   22.3029251,    1.0999999,   4.50783205
   3417,   1.63803387,    1.0999999,   3.26714826
   3418,   1.99831462,    1.0999999,   5.83154392
   3419,   27.2414188,    1.0999999,   4.50455809
   3420,   24.4175835,    1.0999999,   1.64063168
   3421,   3.23891258,    1.0999999,    4.0534811
   3422,   1.40306258,    1.0999999,   3.11532617
   3423,    23.958622,    1.0999999,   4.03320789
   3424,   24.6580677,    1.0999999,   1.32773936
   3425,   24.2495975,    1.0999999,   1.05525875
   3426,   25.0763512,    1.0999999,   1.60019076
   3427,   23.1694889,    1.0999999,   4.63066578
   3428,   24.2899513,    1.0999999,   3.21567059
   3429,   26.2782211,    1.0999999,   4.71075487
   3430,    1.2696166,    1.0999999,   4.00589895
   3431,   1.80208898,    1.0999999,   4.13067055
   3432,   26.1864052,    1.0999999,    3.7544136
   3433,    25.773777,    1.0999999,   1.55035472
   3434,   26.8714886,    1.0999999,    5.0633812
   3435,    28.306776,    1.0999999,   2.90277863
   3436,    27.724577,    1.0999999,   4.39270353
   3437,   23.3581409,    1.0999999,   3.59542513
   3438,   26.2184238,    1.0999999,   3.30607557
   3439,   0.89863807,    1.0999999,   3.12562418
   3440,    26.166399,    1.0999999,   1.85596251
   3441,   27.1418266,    1.0999999,   4.08426046
   3442,   27.9752274,    1.0999999,   3.31700325
   3443,   24.7422428,    1.0999999,   3.54759932
   3444,   1.44779372,    1.0999999,   3.54948568
   3445,   27.0579224,    1.0999999,   3.70108747
   3446,   25.8258114,    1.0999999,   3.26662135
   3447,   26.5728436,    1.0999999,   2.10017061
   3448,    26.675333,    1.0999999,   4.17070484
   3449,   28.0691833,    1.0999999,   3.83980751
   3450,   23.6330547,    1.0999999,   1.04391527
   3451,   26.6745014,    1.0999999,   3.27282476
   3452,   25.1209908,    1.0999999,   2.26311994
   3453,   25.3950138,    1.0999999,   2.59267735
   3454,   27.4924278,    1.0999999,   3.54718399
   3455,   26.2389717,    1.0999999,   2.89544511
   3456,   26.3490715,    1.0999999,   2.48349524
   3457,   27.2311001,    1.0999999,   1.99484098
   3458,   28.5167141,    1.0999999,   3.77284145
   3459,   27.0056171,    1.0999999,   3.40046859
   3460,   25.0611954,    1.0999999,   2.96094251
   3461,   25.8579941,    1.0999999,   2.32047486
   3462,    26.961668,    1.0999999,   2.34600782
   3463,   25.0412884,    1.0999999,   3.37979341
   3464,   27.2919788,    1.0999999,   3.19845319
   3465,   27.5975647,    1.0999999,   2.28455305
   3466, -0.142953783,    1.0999999,   4.22268391
   3467,   1.14828503,    1.0999999,   3.53886366
   3468,   27.5121708,    1.0999999,   1.62507331
   3469,   18.4002514,    1.0999999,   7.22080851
   3470,   25.3246918,    1.0999999,   3.57554698
   3471,   24.0424862,    1.0999999,   5.01615763
   3472,   28.5457821,    1.0999999,   1.92176771
   3473,   18.6010094,    1.0999999,   7.04465008
   3474,   18.8803864,    1.0999999,   6.80665302
   3475,   15.6620646,    1.0999999,   8.06082058
   3476,   15.2714767,    1.0999999,    8.1505146
   3477,   19.2627869,    1.0999999,   6.56519938
   3478,   2.48516631,    1.0999999,   5.95085239
   3479,   2.96787643,    1.0999999,   6.07691479
   3480,   23.5204639,    1.0999999,  0.425696999
   3481,   23.0449047,    1.0999999, -0.0425841063
   3482,   6.56008482,    1.0999999,   7.15946865
   3483,   7.01143694,    1.0999999,    7.3261199
   3484,   7.37513208,    1.0999999,   7.45604753
   3485,   8.44535828,    1.0999999,     7.718256
   3486,   8.83324051,    1.0999999,   7.82355452
   3487,   9.31171417,    1.0999999,   7.95353556
   3488,   9.80315208,    1.0999999,   8.07924175
   3489,   7.56861115,    1.0999999,   7.39303732
   3490,    7.1846056,    1.0999999,   7.20100355
   3491,   6.73922968,    1.0999999,   6.99532938
   3492,   6.28226662,    1.0999999,   6.77325583
   3493,    5.8286376,    1.0999999,   6.53477907
   3494,   2.94820595,    1.0999999,   3.64766145
   3495,   14.7886505,    1.0999999,   8.25772381
   3496,   14.2923622,    1.0999999,   8.35989666
   3497,   13.7925739,    1.0999999,   8.45063782
   3498,    13.291769,    1.0999999,   8.52550697
   3499,   12.7994385,    1.0999999,   8.56882191
   3500,   12.3056669,    1.0999999,   8.53617191
   3501,   11.8025436,    1.0999999,   8.47227287
   3502,   11.2991638,    1.0999999,    8.3916502
   3503,   10.7980366,    1.0999999,   8.29915333
   3504,   10.2989912,    1.0999999,   8.19468975
   3505,   30.0689507,    1.0999999,   3.95924687
   3506,   26.0553913,    1.0999999,  0.497796923
   3507,   27.1330395,    1.0999999,   1.32338858
   3508,   1.26413178,    1.0999999,   1.44875324
   3509,   22.5231972,    1.0999999,    5.7543931
   3510,   23.3437386,    1.0999999,   2.42287493
   3511,   30.3686695,    1.0999999,   3.66241074
   3512,   30.0090313,    1.0999999,   3.56528878
   3513,   23.9407063,    1.0999999, -0.296431571
   3514,   1.87040734,    1.0999999,   2.91122866
   3515,   2.13400865,    1.0999999,   3.19384027
   3516,   26.8462124,    1.0999999,   1.71282887
   3517,   27.9533615,    1.0999999,   2.59374714
   3518,   2.98458672,    1.0999999,   5.38231134
   3519,   23.5522556,    1.0999999,   2.96696043
   3520,   23.9191456,    1.0999999,   2.26372218
   3521,   25.3136253,    1.0999999,    4.6083765
   3522,   23.4918804,    1.0999999, -0.178284481
   3523,  0.539980173,    1.0999999,   3.10729074
   3524,   2.96572089,    1.0999999,   4.90665388
   3525,   24.2693043,    1.0999999,  0.229540125
   3526,   24.6178265,    1.0999999,  0.451843262
   3527,   0.26293841,    1.0999999,   3.11042261
   3528,   3.25413942,    1.0999999,   5.26346302
   3529,   28.4009228,    1.0999999,    3.4323473
   3530,   1.87250185,    1.0999999,   3.51987195
   3531,   2.11122632,    1.0999999,   3.84368801
   3532,   24.8455276,    1.0999999,  0.999170244
   3533,  0.425914705,    1.0999999,   3.46896696
   3534,  0.772086918,    1.0999999,   3.79609752
   3535,   25.2869797,    1.0999999,  0.815428317
   3536,   23.8146973,    1.0999999,   3.47618914
   3537,   27.3088665,    1.0999999,   2.61739159
   3538,   24.0365353,    1.0999999,   2.78512692
   3539,   27.0157623,    1.0999999,   2.92950964
   3540,  0.684844255,    1.0999999,   3.48194599
   3541,   1.18125343,    1.0999999,   4.52704048
   3542,   24.2810211,    1.0999999,   2.92366433
   3543,   24.6511669,    1.0999999,   3.12850356
   3544,   25.4532299,    1.0999999,   3.16556144
   3545,   25.8841553,    1.0999999,   2.83779788
   3546,   26.5420589,    1.0999999,   2.94729018
   3547,   22.2055359, -0.550000131,  -1.86547697
   3548,   22.2810726, -0.550000131,  -1.40095389
   3549,   22.3566093, -0.550000131, -0.936430931
   3550,   22.4321442, -0.550000131, -0.471907884
   3551,   22.5076809, -0.550000131, -0.00738485297
   3552,   22.2055359, -1.43051153e-07,  -1.86547697
   3553,   22.2810726, -1.43051153e-07,  -1.40095389
   3554,   22.3566093, -1.43051153e-07, -0.936430931
   3555,   22.4321442, -1.43051153e-07, -0.471907884
   3556,   22.5076809, -1.43051153e-07, -0.00738485297
   3557,   22.2055359,  0.549999833,  -1.86547697
   3558,   22.2810726,  0.549999833,  -1.40095389
   3559,   22.3566093,  0.549999833, -0.936430931
   3560,   22.4321442,  0.549999833, -0.471907884
   3561,   22.5076809,  0.549999833, -0.00738485297
   3562,    2.6400001, -0.550000131,  0.459475845
   3563,    2.6400001, -1.43051153e-07,  0.459475845
   3564,    2.6400001,  0.549999833,  0.459475845
   3565,   2.11199999, -0.550000131, 2.09283826e-08
   3566,   1.58400011, -0.550000131, 2.09283826e-08
   3567,   1.05600011, -0.550000131, 2.09283826e-08
   3568,  0.528000057, -0.550000131, 2.09283826e-08
   3569,   2.11199999, -1.43051153e-07, 2.09283826e-08
   3570,   1.58400011, -1.43051153e-07, 2.09283826e-08
   3571,   1.05600011, -1.43051153e-07, 2.09283826e-08
   3572,  0.528000057, -1.43051153e-07, 2.09283826e-08
   3573,   2.11199999,  0.549999833, 2.09283826e-08
   3574,   1.58400011,  0.549999833, 2.09283826e-08
   3575,   1.05600011,  0.549999833, 2.09283826e-08
   3576,  0.528000057,  0.549999833, 2.09283826e-08
   3577,   31.4941959, -0.550000131,   4.00925779
   3578,   31.1138458, -0.550000131,   3.66431975
   3579,   30.7334976, -0.550000131,   3.31938171
   3580,   30.3531475, -0.550000131,   2.97444344
   3581,   29.9727974, -0.550000131,    2.6295054
   3582,   29.5924473, -0.550000131,   2.28456712
   3583,   29.2120972, -0.550000131,   1.93962908
   3584,    28.831749, -0.550000131,    1.5946908
   3585,   28.4513988, -0.550000131,   1.24975264
   3586,   28.0710487, -0.550000131,  0.904814541
   3587,   27.6906986, -0.550000131,  0.559876382
   3588,   27.3103504, -0.550000131,  0.214938194
   3589,   31.4941959, -1.43051153e-07,   4.00925779
   3590,   31.1138458, -1.43051153e-07,   3.66431975
   3591,   30.7334976, -1.43051153e-07,   3.31938171
   3592,   30.3531475, -1.43051153e-07,   2.97444344
   3593,   29.9727974, -1.43051153e-07,    2.6295054
   3594,   29.5924473, -1.43051153e-07,   2.28456712
   3595,   29.2120972, -1.43051153e-07,   1.93962908
   3596,    28.831749, -1.43051153e-07,    1.5946908
   3597,   28.4513988, -1.43051153e-07,   1.24975264
   3598,   28.0710487, -1.43051153e-07,  0.904814541
   3599,   27.6906986, -1.43051153e-07,  0.559876382
   3600,   27.3103504, -1.43051153e-07,  0.214938194
   3601,   31.4941959,  0.549999833,   4.00925779
   3602,   31.1138458,  0.549999833,   3.66431975
   3603,   30.7334976,  0.549999833,   3.31938171
   3604,   30.3531475,  0.549999833,   2.97444344
   3605,   29.9727974,  0.549999833,    2.6295054
   3606,   29.5924473,  0.549999833,   2.28456712
   3607,   29.2120972,  0.549999833,   1.93962908
   3608,    28.831749,  0.549999833,    1.5946908
   3609,   28.4513988,  0.549999833,   1.24975264
   3610,   28.0710487,  0.549999833,  0.904814541
   3611,   27.6906986,  0.549999833,  0.559876382
   3612,   27.3103504,  0.549999833,  0.214938194
   3613,   26.4936371, -0.550000131, -0.329999983
   3614,    26.057272, -0.550000131, -0.529999971
   3615,   25.6209087, -0.550000131, -0.729999959
   3616,   25.1845455, -0.550000131, -0.930000007
   3617,   24.7481823, -0.550000131,        -1.13
   3618,   24.3118191, -0.550000131,  -1.32999992
   3619,   23.8754539, -0.550000131,  -1.52999997
   3620,   23.4390907, -0.550000131,  -1.73000002
   3621,   23.0027275, -0.550000131,  -1.92999995
   3622,   22.5663643, -0.550000131,  -2.12999988
   3623,   26.4936371, -1.43051153e-07, -0.329999983
   3624,    26.057272, -1.43051153e-07, -0.529999971
   3625,   25.6209087, -1.43051153e-07, -0.729999959
   3626,   25.1845455, -1.43051153e-07, -0.930000007
   3627,   24.7481823, -1.43051153e-07,        -1.13
   3628,   24.3118191, -1.43051153e-07,  -1.32999992
   3629,   23.8754539, -1.43051153e-07,  -1.52999997
   3630,   23.4390907, -1.43051153e-07,  -1.73000002
   3631,   23.0027275, -1.43051153e-07,  -1.92999995
   3632,   22.5663643, -1.43051153e-07,  -2.12999988
   3633,   26.4936371,  0.549999833, -0.329999983
   3634,    26.057272,  0.549999833, -0.529999971
   3635,   25.6209087,  0.549999833, -0.729999959
   3636,   25.1845455,  0.549999833, -0.930000007
   3637,   24.7481823,  0.549999833,        -1.13
   3638,   24.3118191,  0.549999833,  -1.32999992
   3639,   23.8754539,  0.549999833,  -1.52999997
   3640,   23.4390907,  0.549999833,  -1.73000002
   3641,   23.0027275,  0.549999833,  -1.92999995
   3642,   22.5663643,  0.549999833,  -2.12999988
   3643,   13.2988348, -0.550000131,   8.75421047
   3644,   13.7876692, -0.550000131,    8.6384201
   3645,   14.2765036, -0.550000131,   8.52263069
   3646,   14.7653379, -0.550000131,   8.40684032
   3647,   15.2541723, -0.550000131,   8.29105091
   3648,   15.7430067, -0.550000131,   8.17526054
   3649,    16.231842, -0.550000131,   8.05947113
   3650,   16.7206764, -0.550000131,   7.94368124
   3651,   17.2095108, -0.550000131,   7.82789135
   3652,   17.6983452, -0.550000131,   7.71210146
   3653,   18.1871796, -0.550000131,   7.59631157
   3654,   18.6760139, -0.550000131,   7.48052216
   3655,   19.1648483, -0.550000131,   7.36473227
   3656,   19.6536827, -0.550000131,   7.24894238
   3657,   20.1425171, -0.550000131,   7.13315248
   3658,   20.6313515, -0.550000131,   7.01736259
   3659,   21.1201859, -0.550000131,    6.9015727
   3660,   21.6090202, -0.550000131,   6.78578281
   3661,   22.0978565, -0.550000131,   6.66999292
   3662,   22.5866909, -0.550000131,   6.55420303
   3663,   23.0755253, -0.550000131,   6.43841314
   3664,   23.5643597, -0.550000131,   6.32262373
   3665,    24.053194, -0.550000131,   6.20683384
   3666,   24.5420284, -0.550000131,   6.09104395
   3667,   25.0308628, -0.550000131,   5.97525406
   3668,   25.5196972, -0.550000131,   5.85946417
   3669,   26.0085316, -0.550000131,   5.74367428
   3670,    26.497366, -0.550000131,   5.62788439
   3671,   26.9862003, -0.550000131,    5.5120945
   3672,   27.4750347, -0.550000131,   5.39630461
   3673,   27.9638691, -0.550000131,   5.28051472
   3674,   28.4527035, -0.550000131,    5.1647253
   3675,   28.9415379, -0.550000131,   5.04893541
   3676,   29.4303741, -0.550000131,   4.93314552
   3677,   29.9192085, -0.550000131,   4.81735563
   3678,   30.4080429, -0.550000131,   4.70156574
   3679,   30.8968773, -0.550000131,   4.58577585
   3680,   31.3857117, -0.550000131,   4.46998596
   3681,   13.2988348, -1.43051153e-07,   8.75421047
   3682,   13.7876692, -1.43051153e-07,    8.6384201
   3683,   14.2765036, -1.43051153e-07,   8.52263069
   3684,   14.7653379, -1.43051153e-07,   8.40684032
   3685,   15.2541723, -1.43051153e-07,   8.29105091
   3686,   15.7430067, -1.43051153e-07,   8.17526054
   3687,    16.231842, -1.43051153e-07,   8.05947113
   3688,   16.7206764, -1.43051153e-07,   7.94368124
   3689,   17.2095108, -1.43051153e-07,   7.82789135
   3690,   17.6983452, -1.43051153e-07,   7.71210146
   3691,   18.1871796, -1.43051153e-07,   7.59631157
   3692,   18.6760139, -1.43051153e-07,   7.48052216
   3693,   19.1648483, -1.43051153e-07,   7.36473227
   3694,   19.6536827, -1.43051153e-07,   7.24894238
   3695,   20.1425171, -1.43051153e-07,   7.13315248
   3696,   20.6313515, -1.43051153e-07,   7.01736259
   3697,   21.1201859, -1.43051153e-07,    6.9015727
   3698,   21.6090202, -1.43051153e-07,   6.78578281
   3699,   22.0978565, -1.43051153e-07,   6.66999292
   3700,   22.5866909, -1.43051153e-07,   6.55420303
   3701,   23.0755253, -1.43051153e-07,   6.43841314
   3702,   23.5643597, -1.43051153e-07,   6.32262373
   3703,    24.053194, -1.43051153e-07,   6.20683384
   3704,   24.5420284, -1.43051153e-07,   6.09104395
   3705,   25.0308628, -1.43051153e-07,   5.97525406
   3706,   25.5196972, -1.43051153e-07,   5.85946417
   3707,   26.0085316, -1.43051153e-07,   5.74367428
   3708,    26.497366, -1.43051153e-07,   5.62788439
   3709,   26.9862003, -1.43051153e-07,    5.5120945
   3710,   27.4750347, -1.43051153e-07,   5.39630461
   3711,   27.9638691, -1.43051153e-07,   5.28051472
   3712,   28.4527035, -1.43051153e-07,    5.1647253
   3713,   28.9415379, -1.43051153e-07,   5.04893541
   3714,   29.4303741, -1.43051153e-07,   4.93314552
   3715,   29.9192085, -1.43051153e-07,   4.81735563
   3716,   30.4080429, -1.43051153e-07,   4.70156574
   3717,   30.8968773, -1.43051153e-07,   4.58577585
   3718,   31.3857117, -1.43051153e-07,   4.46998596
   3719,   13.2988348,  0.549999833,   8.75421047
   3720,   13.7876692,  0.549999833,    8.6384201
   3721,   14.2765036,  0.549999833,   8.52263069
   3722,   14.7653379,  0.549999833,   8.40684032
   3723,   15.2541723,  0.549999833,   8.29105091
   3724,   15.7430067,  0.549999833,   8.17526054
   3725,    16.231842,  0.549999833,   8.05947113
   3726,   16.7206764,  0.549999833,   7.94368124
   3727,   17.2095108,  0.549999833,   7.82789135
   3728,   17.6983452,  0.549999833,   7.71210146
   3729,   18.1871796,  0.549999833,   7.59631157
   3730,   18.6760139,  0.549999833,   7.48052216
   3731,   19.1648483,  0.549999833,   7.36473227
   3732,   19.6536827,  0.549999833,   7.24894238
   3733,   20.1425171,  0.549999833,   7.13315248
   3734,   20.6313515,  0.549999833,   7.01736259
   3735,   21.1201859,  0.549999833,    6.9015727
   3736,   21.6090202,  0.549999833,   6.78578281
   3737,   22.0978565,  0.549999833,   6.66999292
   3738,   22.5866909,  0.549999833,   6.55420303
   3739,   23.0755253,  0.549999833,   6.43841314
   3740,   23.5643597,  0.549999833,   6.32262373
   3741,    24.053194,  0.549999833,   6.20683384
   3742,   24.5420284,  0.549999833,   6.09104395
   3743,   25.0308628,  0.549999833,   5.97525406
   3744,   25.5196972,  0.549999833,   5.85946417
   3745,   26.0085316,  0.549999833,   5.74367428
   3746,    26.497366,  0.549999833,   5.62788439
   3747,   26.9862003,  0.549999833,    5.5120945
   3748,   27.4750347,  0.549999833,   5.39630461
   3749,   27.9638691,  0.549999833,   5.28051472
   3750,   28.4527035,  0.549999833,    5.1647253
   3751,   28.9415379,  0.549999833,   5.04893541
   3752,   29.4303741,  0.549999833,   4.93314552
   3753,   29.9192085,  0.549999833,   4.81735563
   3754,   30.4080429,  0.549999833,   4.70156574
   3755,   30.8968773,  0.549999833,   4.58577585
   3756,   31.3857117,  0.549999833,   4.46998596
   3757, -0.133357525, -0.550000131,  0.495316893
   3758, -0.266715109, -0.550000131,  0.990633726
   3759, -0.400072694, -0.550000131,   1.48595059
   3760, -0.533430278, -0.550000131,   1.98126745
   3761, -0.666787863, -0.550000131,   2.47658443
   3762, -0.800145388, -0.550000131,   2.97190118
   3763, -0.933502972, -0.550000131,   3.46721816
   3764,  -1.06686056, -0.550000131,    3.9625349
   3765,   -1.2002182, -0.550000131,   4.45785189
   3766,  -1.33357573, -0.550000131,   4.95316887
   3767, -0.133357525, -1.43051153e-07,  0.495316893
   3768, -0.266715109, -1.43051153e-07,  0.990633726
   3769, -0.400072694, -1.43051153e-07,   1.48595059
   3770, -0.533430278, -1.43051153e-07,   1.98126745
   3771, -0.666787863, -1.43051153e-07,   2.47658443
   3772, -0.800145388, -1.43051153e-07,   2.97190118
   3773, -0.933502972, -1.43051153e-07,   3.46721816
   3774,  -1.06686056, -1.43051153e-07,    3.9625349
   3775,   -1.2002182, -1.43051153e-07,   4.45785189
   3776,  -1.33357573, -1.43051153e-07,   4.95316887
   3777, -0.133357525,  0.549999833,  0.495316893
   3778, -0.266715109,  0.549999833,  0.990633726
   3779, -0.400072694,  0.549999833,   1.48595059
   3780, -0.533430278,  0.549999833,   1.98126745
   3781, -0.666787863,  0.549999833,   2.47658443
   3782, -0.800145388,  0.549999833,   2.97190118
   3783, -0.933502972,  0.549999833,   3.46721816
   3784,  -1.06686056,  0.549999833,    3.9625349
   3785,   -1.2002182,  0.549999833,   4.45785189
   3786,  -1.33357573,  0.549999833,   4.95316887
   3787, -0.974625289, -0.550000131,   5.56646872
   3788, -0.482317209, -0.550000131,   5.68445206
   3789, 0.00999083277, -0.550000131,    5.8024354
   3790,  0.502298892, -0.550000131,   5.92041874
   3791,  0.994606912, -0.550000131,    6.0384016
   3792,   1.48691499, -0.550000131,   6.15638494
   3793,   1.97922301, -0.550000131,   6.27436829
   3794,   2.47153115, -0.550000131,   6.39235163
   3795,   2.96383905, -0.550000131,   6.51033497
   3796,   3.45614719, -0.550000131,   6.62831831
   3797,    3.9484551, -0.550000131,   6.74630117
   3798,   4.44076347, -0.550000131,   6.86428452
   3799,   4.93307114, -0.550000131,   6.98226786
   3800,   5.42537928, -0.550000131,    7.1002512
   3801,   5.91768742, -0.550000131,   7.21823454
   3802,   6.40999556, -0.550000131,   7.33621788
   3803,    6.9023037, -0.550000131,   7.45420074
   3804,   7.39461136, -0.550000131,   7.57218409
   3805,    7.8869195, -0.550000131,   7.69016743
   3806,   8.37922764, -0.550000131,   7.80815077
   3807,    8.8715353, -0.550000131,   7.92613411
   3808,   9.36384392, -0.550000131,   8.04411697
   3809,   9.85615158, -0.550000131,   8.16210079
   3810,   10.3484602, -0.550000131,   8.28008366
   3811,   10.8407679, -0.550000131,   8.39806652
   3812,   11.3330755, -0.550000131,   8.51605034
   3813,   11.8253841, -0.550000131,    8.6340332
   3814,   12.3176918, -0.550000131,   8.75201702
   3815, -0.974625289, -1.43051153e-07,   5.56646872
   3816, -0.482317209, -1.43051153e-07,   5.68445206
   3817, 0.00999083277, -1.43051153e-07,    5.8024354
   3818,  0.502298892, -1.43051153e-07,   5.92041874
   3819,  0.994606912, -1.43051153e-07,    6.0384016
   3820,   1.48691499, -1.43051153e-07,   6.15638494
   3821,   1.97922301, -1.43051153e-07,   6.27436829
   3822,   2.47153115, -1.43051153e-07,   6.39235163
   3823,   2.96383905, -1.43051153e-07,   6.51033497
   3824,   3.45614719, -1.43051153e-07,   6.62831831
   3825,    3.9484551, -1.43051153e-07,   6.74630117
   3826,   4.44076347, -1.43051153e-07,   6.86428452
   3827,   4.93307114, -1.43051153e-07,   6.98226786
   3828,   5.42537928, -1.43051153e-07,    7.1002512
   3829,   5.91768742, -1.43051153e-07,   7.21823454
   3830,   6.40999556, -1.43051153e-07,   7.33621788
   3831,    6.9023037, -1.43051153e-07,   7.45420074
   3832,   7.39461136, -1.43051153e-07,   7.57218409
   3833,    7.8869195, -1.43051153e-07,   7.69016743
   3834,   8.37922764, -1.43051153e-07,   7.80815077
   3835,    8.8715353, -1.43051153e-07,   7.92613411
   3836,   9.36384392, -1.43051153e-07,   8.04411697
   3837,   9.85615158, -1.43051153e-07,   8.16210079
   3838,   10.3484602, -1.43051153e-07,   8.28008366
   3839,   10.8407679, -1.43051153e-07,   8.39806652
   3840,   11.3330755, -1.43051153e-07,   8.51605034
   3841,   11.8253841, -1.43051153e-07,    8.6340332
   3842,   12.3176918, -1.43051153e-07,   8.75201702
   3843, -0.974625289,  0.549999833,   5.56646872
   3844, -0.482317209,  0.549999833,   5.68445206
   3845, 0.00999083277,  0.549999833,    5.8024354
   3846,  0.502298892,  0.549999833,   5.92041874
   3847,  0.994606912,  0.549999833,    6.0384016
   3848,   1.48691499,  0.549999833,   6.15638494
   3849,   1.97922301,  0.549999833,   6.27436829
   3850,   2.47153115,  0.549999833,   6.39235163
   3851,   2.96383905,  0.549999833,   6.51033497
   3852,   3.45614719,  0.549999833,   6.62831831
   3853,    3.9484551,  0.549999833,   6.74630117
   3854,   4.44076347,  0.549999833,   6.86428452
   3855,   4.93307114,  0.549999833,   6.98226786
   3856,   5.42537928,  0.549999833,    7.1002512
   3857,   5.91768742,  0.549999833,   7.21823454
   3858,   6.40999556,  0.549999833,   7.33621788
   3859,    6.9023037,  0.549999833,   7.45420074
   3860,   7.39461136,  0.549999833,   7.57218409
   3861,    7.8869195,  0.549999833,   7.69016743
   3862,   8.37922764,  0.549999833,   7.80815077
   3863,    8.8715353,  0.549999833,   7.92613411
   3864,   9.36384392,  0.549999833,   8.04411697
   3865,   9.85615158,  0.549999833,   8.16210079
   3866,   10.3484602,  0.549999833,   8.28008366
   3867,   10.8407679,  0.549999833,   8.39806652
   3868,   11.3330755,  0.549999833,   8.51605034
   3869,   11.8253841,  0.549999833,    8.6340332
   3870,   12.3176918,  0.549999833,   8.75201702
   3871,   22.3566093,   1.29999983, -0.936430812
   3872,   22.2055359,   1.29999983,  -1.86547697
   3873,   22.2810726,   1.29999983,  -1.40095389
   3874,   22.4321442,   1.29999983, -0.471908003
   3875,   22.5076809,   1.29999983, -0.00738488324
   3876,   25.6209087,   1.29999983, -0.730000138
   3877,   24.7481823,   1.29999983,  -1.12999988
   3878,   23.4390907,   1.29999983,  -1.73000002
   3879,   26.4936371,   1.29999983, -0.329999715
   3880,    26.057272,   1.29999983, -0.530000269
   3881,   25.1845455,   1.29999983, -0.930000007
   3882,   24.3118191,   1.29999983,  -1.32999969
   3883,   23.8754539,   1.29999983,  -1.53000021
   3884,   23.0027275,   1.29999983,  -1.92999995
   3885,   22.5663643,   1.29999983,  -2.12999964
   3886,   31.1138458,   1.21538448,   3.66431952
   3887,   30.7334976,    1.2230767,   3.31938219
   3888,   29.9727974,   1.23846138,    2.6295054
   3889,   29.2120972,   1.25384593,    1.9396286
   3890,    28.831749,   1.26153827,   1.59469116
   3891,   28.0710487,   1.27692294,  0.904814363
   3892,   27.6906986,   1.28461516,  0.559875965
   3893,   31.4941959,   1.20769215,   4.00925779
   3894,   30.3531475,   1.23076904,   2.97444367
   3895,   29.5924473,   1.24615371,   2.28456688
   3896,   28.4513988,    1.2692306,   1.24975276
   3897,   27.3103504,    1.2923075,  0.214938536
   3898, -0.400072664,   1.27272713,   1.48595059
   3899, -0.800145388,   1.24545431,   2.97190118
   3900,  -1.06686056,   1.22727251,    3.9625349
   3901, -0.133357525,   1.29090893,  0.495316893
   3902, -0.266715109,   1.28181803,  0.990633726
   3903, -0.533430278,   1.26363623,   1.98126745
   3904, -0.666787863,   1.25454521,   2.47658443
   3905, -0.933503032,   1.23636341,   3.46721816
   3906,   -1.2002182,   1.21818161,   4.45785189
   3907,  -1.33357573,   1.20909071,   4.95316887
   3908,   1.58400011,   1.29999983, 2.09283826e-08
   3909,   2.11199999,   1.29999983, 2.09283826e-08
   3910,   1.05600011,   1.29999983, 2.09283826e-08
   3911,  0.528000057,   1.29999983, 2.09283826e-08
   3912,    2.6400001,   1.29999983,  0.459475845
   3913,   24.1252441,   1.49999976,  -0.63568604
   3914,   1.53322041,   1.49999976,   2.13634729
   3915,   1.61160481,   1.49999976,   2.71459413
   3916,   1.59160483,   1.49999976,     3.805933
   3917,   1.67317796,   1.49999976,   4.78305197
   3918,   1.58176529,   1.49999976,   5.83872652
   3919,   2.97144723,   1.49999976,   5.68265629
   3920,   2.64687014,   1.49999976,   4.56492901
   3921,   2.65984368,   1.49999976,   3.91479015
   3922,  0.618446529,   1.49999976,   1.01297438
   3923,  0.573070824,   1.49999976,   2.02990246
   3924,  0.493135035,   1.49999976,   2.68910813
   3925,  0.373334646,   1.49999976,   3.85958004
   3926,  0.733100653,   1.49999976,   4.88439846
   3927, -0.466453254,   1.49999976,   3.61583281
   3928, -0.241793469,   1.49999976,   4.70594215
   3929,    3.9115932,   1.49999976,   5.63621378
   3930,   3.87119627,   1.49999976,   4.86954355
   3931,    4.9583292,   1.49999976,   5.96255016
   3932,   6.08658552,   1.49999976,   6.98315096
   3933,   19.5087242,   1.49999976,   6.88080978
   3934,   20.4592285,   1.49999976,   5.65625668
   3935,   21.5597668,   1.49999976,   5.93120432
   3936,   21.6088905,   1.49999976,   4.55805874
   3937,   22.8740616,   1.49999976,   5.81802511
   3938,   22.6083355,   1.49999976,   4.80770254
   3939,   23.0221329,   1.49999976,   3.67325521
   3940,   23.8848248,   1.49999976,   5.58989573
   3941,   23.6007481,   1.49999976,   4.82530975
   3942,   23.6084442,   1.49999976,   3.81018949
   3943,   23.7110634,   1.49999976,   2.60497975
   3944,   23.7952423,   1.49999976,   1.67340219
   3945,   23.8667736,   1.49999976,    0.7647385
   3946,   23.4147282,   1.49999976, -0.627828121
   3947,   23.4187622,   1.49999976,  -1.38126147
   3948,   24.4466953,   1.49999976,  0.763258636
   3949,   24.7878304,   1.49999976,   1.93648517
   3950,   24.5070534,   1.49999976,   2.77824092
   3951,   24.5568123,   1.49999976,   4.60378551
   3952,   25.8161507,   1.49999976,   4.82684946
   3953,   25.7313614,   1.49999976,   3.72213721
   3954,   25.5791054,   1.49999976,   2.85871649
   3955,   25.4641609,   1.49999976,   1.93335426
   3956,   25.5017052,   1.49999976,  0.593173623
   3957,   25.4850101,   1.49999976, -0.340552807
   3958,   26.7582569,   1.49999976,   4.60959291
   3959,   26.6327972,   1.49999976,     3.736624
   3960,   26.7264557,   1.49999976,   2.68017602
   3961,   26.4712925,   1.49999976,   1.44954395
   3962,   26.4077549,   1.49999976,  0.765896261
   3963,   27.8401108,   1.49999976,   4.83056879
   3964,   27.6101971,   1.49999976,    3.9531858
   3965,   27.6375809,   1.49999976,   2.92739224
   3966,    27.888586,   1.49999976,   1.93744719
   3967,   28.9607887,   1.49999976,   3.61518145
   3968,   28.6238842,   1.49999976,   2.58006024
   3969,   29.5940208,   1.49999976,   3.97807026
   3970,   23.2973976,   1.49999976,  0.194152921
   3971,   1.86105704,   1.49999976,  0.882555842
   3972,   2.04425025,   1.49999976,  0.570465028
   3973,   23.0021019,   1.49999976,  -1.56110418
   3974, -0.273747027,   1.49999976,   3.09905744
   3975,   25.0683746,   1.49999976, -0.554491162
   3976,   22.5922356,   1.49999976,  -1.72610772
   3977,   22.6797771,   1.49999976, -0.859469473
   3978,   22.6322556,   1.49999976,  -1.29779053
   3979,   22.7320347,   1.49999976, -0.426647544
   3980,   22.8175888,   1.49999976, 0.0189242288
   3981,   23.7636909,   1.49999976,  0.204439968
   3982,   24.2332649,   1.49999976, -0.981791854
   3983,    24.647995,   1.49999976, -0.769629598
   3984,   25.8957806,   1.49999976, -0.125614032
   3985,   23.8331795,   1.49999976,  -1.19384265
   3986,   26.2910213,   1.49999976, 0.0982466862
   3987,   5.60751295,   1.49999976,   6.79769373
   3988,   21.5753193,   1.49999976,   6.32871485
   3989,   27.3552666,   1.49999976,   4.94693851
   3990,    20.500515,   1.49999976,    6.4095974
   3991,   19.9601402,   1.49999976,   6.68030596
   3992,   28.3206196,   1.49999976,    4.7223196
   3993,   29.7562637,   1.49999976,   4.42184114
   3994,    22.517374,   1.49999976,   6.16519642
   3995,   25.9210243,   1.49999976,   5.29775429
   3996,   30.6881294,   1.49999976,   4.26507664
   3997,   19.1824417,   1.49999976,   7.03258705
   3998,    31.132103,   1.49999976,   4.14780188
   3999,   22.0516548,   1.49999976,   6.21684551
   4000,   25.4578953,   1.49999976,   5.41605949
   4001,   29.2812347,   1.49999976,   4.51340914
   4002,   30.2279835,   1.49999976,   4.34645844
   4003,   21.0882397,   1.49999976,   6.37170839
   4004,   26.3900757,   1.49999976,   5.17813778
   4005,   28.8002033,   1.49999976,   4.61836958
   4006,   23.3987312,   1.49999976,   5.90278482
   4007,   24.9795837,   1.49999976,   5.51013803
   4008, -0.847497582,   1.49999976,   5.07581663
   4009,  0.659352183,   1.49999976,   5.40002632
   4010,  0.143347651,   1.49999976,   5.30089998
   4011,   4.55342007,   1.49999976,    6.2948451
   4012,   5.11697626,   1.49999976,   6.58711052
   4013,   3.96246505,   1.49999976,    6.2179718
   4014,   3.46443081,   1.49999976,   6.15925312
   4015,  -0.35714075,   1.49999976,   5.19151402
   4016,   21.9790115,   1.49999976,   4.15315104
   4017,   22.9712601,   1.49999976,   2.24650574
   4018,   2.40117002,   1.49999976,   2.85389566
   4019,   2.12843156,   1.49999976,   2.50382233
   4020,    22.433321,   1.49999976,   3.72838426
   4021,   4.61062288,   1.49999976,   5.60160589
   4022,   4.22469139,   1.49999976,   5.27134848
   4023,   3.54513288,   1.49999976,   4.45882988
   4024,   22.7634754,   1.49999976,   2.69189477
   4025,   20.8639278,   1.49999976,   5.33508873
   4026,   22.5804501,   1.49999976,   3.16152048
   4027,   20.1009445,   1.49999976,   6.00921822
   4028,   23.1898918,   1.49999976,   1.81165373
   4029,   1.86419344,   1.49999976,   2.26978016
   4030,   5.38035631,   1.49999976,   6.27278662
   4031,  0.231988147,   1.49999976,   1.01233041
   4032, -0.0803270042,   1.49999976,    2.1110661
   4033,  0.198287413,   1.49999976,   1.60069323
   4034, -0.253155947,   1.49999976,   2.56563187
   4035, -0.724629402,   1.49999976,   4.58641863
   4036,  -0.60391438,   1.49999976,   4.09985781
   4037,   26.6690464,   1.49999976,  0.339344949
   4038,   30.5374489,   1.49999976,   3.49678516
   4039,   29.7118759,   1.49999976,    2.9751308
   4040,   28.1723175,   1.49999976,   1.58884037
   4041,   30.8529186,   1.49999976,   3.81104112
   4042,   27.0407352,   1.49999976,  0.625197709
   4043,    29.302721,   1.49999976,   2.62163353
   4044,   27.7953262,   1.49999976,    1.2604537
   4045,   27.4155235,   1.49999976,  0.936209857
   4046,   28.9204578,   1.49999976,   2.26410246
   4047,    30.147213,   1.49999976,   3.24009299
   4048,  0.391124099,   1.49999976,  0.521130741
   4049,   1.50719607,   1.49999976,  0.527178824
   4050,    23.075386,   1.49999976, -0.348077357
   4051,   23.0377541,   1.49999976,   3.23793101
   4052,   1.30363238,   1.49999976,   2.57176495
   4053,  0.727429152,   1.49999976,   1.35140073
   4054,   24.0834217,   1.49999976,  0.504376352
   4055,   22.9693604,   1.49999976,   6.09422207
   4056,   23.1071148,   1.49999976,   5.57882738
   4057,   1.52330375,   1.49999976,  0.937852025
   4058,   22.7149544,   1.49999976,    4.2214632
   4059,   24.9316597,   1.49999976, -0.197619423
   4060,   3.57356906,   1.49999976,   5.10020447
   4061,   22.0041485,   1.49999976,   5.66337013
   4062,   28.1922398,   1.49999976,   4.28025532
   4063,   23.3991966,   1.49999976,  -1.02893496
   4064,   19.6868954,   1.49999976,   6.30737638
   4065,   23.0152683,   1.49999976,  -1.16692185
   4066,   23.0441628,   1.49999976, -0.748868704
   4067,    21.161768,   1.49999976,   5.77448988
   4068,   23.7754688,   1.49999976, -0.869778216
   4069, 0.0568119399,   1.49999976,   2.60198903
   4070,   25.3969631,   1.49999976,   4.97726297
   4071,   24.4775772,   1.49999976,   5.57102346
   4072,    30.492054,   1.49999976,   3.93267107
   4073,   28.6587219,   1.49999976,   4.18429756
   4074,   29.1328335,   1.49999976,   4.07202625
   4075,   24.9553642,   1.49999976,   5.04976225
   4076,   23.5607948,   1.49999976,   2.03282619
   4077,   1.27532399,   1.49999976,   5.48969221
   4078,   4.37699366,   1.49999976,   5.83159542
   4079,  0.250044346,   1.49999976,   4.80381775
   4080,   25.7065048,   1.49999976,  0.254533648
   4081,   25.3257713,   1.49999976,  0.019525731
   4082,   2.66996527,   1.49999976,   3.24395466
   4083,   1.70060194,   1.49999976,   1.69446886
   4084,   21.2506943,   1.49999976,    4.9583869
   4085,   23.4111671,   1.49999976,    1.3981781
   4086,   26.7631836,   1.49999976,   1.03705788
   4087,   29.4501724,   1.49999976,   3.41446018
   4088,   28.2556248,   1.49999976,   2.25350356
   4089, 0.0967634171,   1.49999976,   3.38350511
   4090,  0.937330782,   1.49999976,  0.616338372
   4091,   23.1634979,   1.49999976,    2.8269453
   4092,   3.42436767,   1.49999976,   5.70182085
   4093,   1.63471127,   1.49999976,   1.31070507
   4094,   2.39441514,   1.49999976,    3.5407052
   4095,   1.39068282,   1.49999976,   1.70224297
   4096,   24.5059528,   1.49999976,   5.07077026
   4097,   1.21071804,   1.49999976,     4.931674
   4098,    24.029377,   1.49999976,   1.35207748
   4099,   23.9744873,   1.49999976, 0.0521450378
   4100,  0.336743742,   1.49999976,   4.30489874
   4101,   23.4397717,   1.49999976,   3.30917645
   4102,   24.9611855,   1.49999976,   4.57087564
   4103,   25.1514568,   1.49999976,  0.353050768
   4104,   1.96044457,   1.49999976,   5.29448271
   4105,    1.1917125,   1.49999976,   2.00354099
   4106,   24.5256042,   1.49999976, -0.419808269
   4107,    23.392374,   1.49999976,   5.24716187
   4108,   22.3165092,   1.49999976,   5.17104006
   4109,    23.255003,   1.49999976,   4.14564657
   4110,   3.25738883,   1.49999976,   4.68284464
   4111,   21.5967178,   1.49999976,   5.30640268
   4112,   24.1638565,   1.49999976,    1.9466933
   4113,   20.6984177,   1.49999976,   5.93011713
   4114,  0.263619453,   1.49999976,   2.34499145
   4115, -0.0438715778,   1.49999976,   3.77167392
   4116,   24.2450314,   1.49999976,   2.50207138
   4117,  0.923492968,   1.49999976,   1.71310186
   4118,   24.3949013,   1.49999976, -0.0883797109
   4119,  0.886067092,   1.49999976,   2.47785735
   4120,    24.976656,   1.49999976,  0.673760891
   4121,   2.36284995,   1.49999976,   4.20253086
   4122,   24.1580582,   1.49999976,   4.57462215
   4123,  0.846562624,   1.49999976,   4.30709362
   4124,   2.52587771,   1.49999976,   5.53017759
   4125,   22.9728241,   1.49999976,   5.01790857
   4126,   22.7189121,   1.49999976,   5.37152004
   4127,   23.9216442,   1.49999976,   3.11773872
   4128,    21.955616,   1.49999976,   4.88656807
   4129,   23.6951408,   1.49999976, -0.614511073
   4130,   2.32791829,   1.49999976,    4.8825922
   4131,  0.148210913,   1.49999976,   2.87239671
   4132,   25.6188431,   1.49999976,   4.27587223
   4133,   29.0054359,   1.49999976,   2.93936682
   4134,   2.69134021,   1.49999976,   5.17697144
   4135,   1.11865258,   1.49999976,   1.08552611
   4136,   24.5024357,   1.49999976,   2.23224664
   4137,   25.7796021,   1.49999976,  0.871426105
   4138,   24.5363026,   1.49999976,   4.14344645
   4139,   22.8342533,   1.49999976,   4.54550838
   4140,   28.6707935,   1.49999976,   3.20276141
   4141,   1.20335662,   1.49999976,   2.96364713
   4142,   25.3615513,   1.49999976,    1.1909616
   4143,   24.2826099,   1.49999976,   3.67715335
   4144,   24.2245178,   1.49999976,   4.24515343
   4145,   2.95127869,   1.49999976,   4.29615068
   4146,   1.47749603,   1.49999976,   4.35899496
   4147,   2.03911781,   1.49999976,   4.50665331
   4148,   26.1827755,   1.49999976,   4.22958565
   4149,   24.8008022,   1.49999976,   2.56156778
   4150,   25.0289154,   1.49999976,     4.023664
   4151,   23.7435551,   1.49999976,   4.40545034
   4152,   24.7801533,   1.49999976,  0.128859505
   4153,    26.104353,   1.49999976,    1.1663394
   4154,   22.3029251,   1.49999976,   4.50783205
   4155,   1.63803387,   1.49999976,   3.26714826
   4156,   1.99831462,   1.49999976,   5.83154392
   4157,   27.2414188,   1.49999976,   4.50455809
   4158,   24.4175835,   1.49999976,   1.64063168
   4159,   3.23891258,   1.49999976,    4.0534811
   4160,   1.40306258,   1.49999976,   3.11532617
   4161,    23.958622,   1.49999976,   4.03320789
   4162,   24.6580677,   1.49999976,   1.32773936
   4163,   24.2495975,   1.49999976,   1.05525875
   4164,   25.0763512,   1.49999976,   1.60019076
   4165,   23.1694889,   1.49999976,   4.63066578
   4166,   24.2899513,   1.49999976,   3.21567059
   4167,   26.2782211,   1.49999976,   4.71075487
   4168,    1.2696166,   1.49999976,   4.00589895
   4169,   1.80208898,   1.49999976,   4.13067055
   4170,   26.1864052,   1.49999976,    3.7544136
   4171,    25.773777,   1.49999976,   1.55035472
   4172,   26.8714886,   1.49999976,    5.0633812
   4173,    28.306776,   1.49999976,   2.90277863
   4174,    27.724577,   1.49999976,   4.39270353
   4175,   23.3581409,   1.49999976,   3.59542513
   4176,   26.2184238,   1.49999976,   3.30607557
   4177,   0.89863807,   1.49999976,   3.12562394
   4178,    26.166399,   1.49999976,   1.85596251
   4179,   27.1418266,   1.49999976,   4.08426046
   4180,   27.9752274,   1.49999976,   3.31700325
   4181,   24.7422428,   1.49999976,   3.54759932
   4182,   1.44779372,   1.49999976,   3.54948568
   4183,   27.0579224,   1.49999976,   3.70108747
   4184,   25.8258114,   1.49999976,   3.26662135
   4185,   26.5728436,   1.49999976,   2.10017061
   4186,    26.675333,   1.49999976,   4.17070484
   4187,   28.0691833,   1.49999976,   3.83980751
   4188,   23.6330547,   1.49999976,   1.04391527
   4189,   26.6745014,   1.49999976,   3.27282453
   4190,   25.1209908,   1.49999976,   2.26311994
   4191,   25.3950138,   1.49999976,   2.59267735
   4192,   27.4924278,   1.49999976,   3.54718399
   4193,   26.2389717,   1.49999976,   2.89544511
   4194,   26.3490715,   1.49999976,   2.48349524
   4195,   27.2311001,   1.49999976,   1.99484098
   4196,   28.5167141,   1.49999976,   3.77284145
   4197,   27.0056171,   1.49999976,   3.40046859
   4198,   25.0611954,   1.49999976,   2.96094251
   4199,   25.8579941,   1.49999976,   2.32047486
   4200,    26.961668,   1.49999976,   2.34600782
   4201,   25.0412884,   1.49999976,   3.37979341
   4202,   27.2919788,   1.49999976,   3.19845319
   4203,   27.5975647,   1.49999976,   2.28455305
   4204, -0.142953783,   1.49999976,   4.22268391
   4205,   1.14828503,   1.49999976,    3.5388639
   4206,   27.5121708,   1.49999976,   1.62507331
   4207,   18.4002514,   1.49999976,   7.22080851
   4208,   25.3246918,   1.49999976,   3.57554698
   4209,   24.0424862,   1.49999976,   5.01615763
   4210,   28.5457821,   1.49999976,   1.92176771
   4211,   18.6010094,   1.49999976,   7.04465008
   4212,   18.8803864,   1.49999976,   6.80665302
   4213,   15.6620646,   1.49999976,   8.06082058
   4214,   15.2714767,   1.49999976,    8.1505146
   4215,   19.2627869,   1.49999976,   6.56519938
   4216,   2.48516631,   1.49999976,   5.95085239
   4217,   2.96787643,   1.49999976,   6.07691479
   4218,   23.5204639,   1.49999976,  0.425696999
   4219,   23.0449047,   1.49999976, -0.0425841063
   4220,   6.56008482,   1.49999976,   7.15946865
   4221,   7.01143694,   1.49999976,    7.3261199
   4222,   7.37513208,   1.49999976,   7.45604753
   4223,   8.44535828,   1.49999976,     7.718256
   4224,   8.83324051,   1.49999976,   7.82355452
   4225,   9.31171417,   1.49999976,   7.95353556
   4226,   9.80315208,   1.49999976,   8.07924175
   4227,   7.56861115,   1.49999976,   7.39303732
   4228,    7.1846056,   1.49999976,   7.20100355
   4229,   6.73922968,   1.49999976,   6.99532938
   4230,   6.28226662,   1.49999976,   6.77325583
   4231,    5.8286376,   1.49999976,   6.53477907
   4232,   2.94820595,   1.49999976,   3.64766145
   4233,   14.7886505,   1.49999976,   8.25772381
   4234,   14.2923622,   1.49999976,   8.35989666
   4235,   13.7925739,   1.49999976,   8.45063782
   4236,    13.291769,   1.49999976,   8.52550697
   4237,   12.7994385,   1.49999976,   8.56882191
   4238,   12.3056669,   1.49999976,   8.53617191
   4239,   11.8025436,   1.49999976,   8.47227287
   4240,   11.2991638,   1.49999976,    8.3916502
   4241,   10.7980366,   1.49999976,   8.29915333
   4242,   10.2989912,   1.49999976,   8.19468975
   4243,   30.0689507,   1.49999976,   3.95924687
   4244,   26.0553913,   1.49999976,  0.497796923
   4245,   27.1330395,   1.49999976,   1.32338858
   4246,   1.26413178,   1.49999976,   1.44875324
   4247,   22.5231972,   1.49999976,    5.7543931
   4248,   23.3437386,   1.49999976,   2.42287493
   4249,   30.3686695,   1.49999976,   3.66241074
   4250,   30.0090313,   1.49999976,   3.56528878
   4251,   23.9407063,   1.49999976, -0.296431571
   4252,   1.87040734,   1.49999976,   2.91122866
   4253,   2.13400865,   1.49999976,   3.19384027
   4254,   26.8462124,   1.49999976,   1.71282887
   4255,   27.9533615,   1.49999976,   2.59374714
   4256,   2.98458672,   1.49999976,   5.38231134
   4257,   23.5522556,   1.49999976,   2.96696043
   4258,   23.9191456,   1.49999976,   2.26372218
   4259,   25.3136253,   1.49999976,    4.6083765
   4260,   23.4918804,   1.49999976, -0.178284481
   4261,  0.539980173,   1.49999976,   3.10729074
   4262,   2.96572089,   1.49999976,   4.90665388
   4263,   24.2693043,   1.49999976,  0.229540125
   4264,   24.6178265,   1.49999976,  0.451843262
   4265,   0.26293841,   1.49999976,   3.11042261
   4266,   3.25413966,   1.49999976,   5.26346302
   4267,   28.4009228,   1.49999976,    3.4323473
   4268,   1.87250185,   1.49999976,   3.51987195
   4269,   2.11122632,   1.49999976,   3.84368801
   4270,   24.8455276,   1.49999976,  0.999170244
   4271,  0.425914705,   1.49999976,   3.46896696
   4272,  0.772086918,   1.49999976,   3.79609752
   4273,   25.2869797,   1.49999976,  0.815428317
   4274,   23.8146973,   1.49999976,   3.47618914
   4275,   27.3088665,   1.49999976,   2.61739159
   4276,   24.0365353,   1.49999976,   2.78512692
   4277,   27.0157623,   1.49999976,   2.92950964
   4278,  0.684844255,   1.49999976,   3.48194599
   4279,   1.18125343,   1.49999976,   4.52704048
   4280,   24.2810211,   1.49999976,   2.92366433
   4281,   24.6511669,   1.49999976,   3.12850356
   4282,   25.4532299,   1.49999976,   3.16556144
   4283,   25.8841553,   1.49999976,   2.83779788
   4284,   26.5420589,   1.49999976,   2.94729018
   4285,   24.1252441,  -1.28923845,  -0.63568604
   4286,   1.53322041,  -1.28365242,   2.13634729
   4287,   1.61160481,   -1.2790488,   2.71459413
   4288,   1.59160483,  -1.27048099,     3.805933
   4289,   1.67317796,  -1.26273835,   4.78305197
   4290,   1.58097303,  -1.25428391,   5.84057617
   4291,   2.97144723,  -1.25473225,   5.68265629
   4292,   2.64687014,  -1.26375496,   4.56492901
   4293,   2.65984368,  -1.26885831,   3.91479015
   4294,  0.618446529,  -1.29314303,   1.01297438
   4295,  0.573070824,  -1.28517854,   2.02990246
   4296,  0.493135035,  -1.28005195,   2.68910813
   4297,  0.373334646,  -1.27093339,   3.85958004
   4298,  0.733100653,  -1.26261604,   4.88439846
   4299, -0.467142045,  -1.27340531,   3.61568999
   4300, -0.241793469,  -1.26471901,   4.70594215
   4301,   3.91159272,  -1.25442278,   5.63621378
   4302,   3.87192106,  -1.26056135,   4.86883116
   4303,   4.95925903,  -1.25126994,   5.96142626
   4304,   6.08602762,  -1.24211097,   6.98462486
   4305,   19.5092163,  -1.23338413,   6.88135672
   4306,    20.458025,   -1.2425952,   5.65471697
   4307,   21.5597668,  -1.23943794,   5.93120432
   4308,   21.6080818,   -1.2503078,   4.55712748
   4309,   22.8740616,  -1.23938477,   5.81802511
   4310,   22.6083355,  -1.24752057,   4.80770254
   4311,   23.0221329,  -1.25614476,   3.67325521
   4312,   23.8850784,  -1.24039578,   5.59044838
   4313,   23.6007481,  -1.24666989,   4.82530975
   4314,   23.6084442,  -1.25464725,   3.81018949
   4315,   23.7110634,  -1.26405132,   2.60497975
   4316,   23.7952423,  -1.27131677,   1.67340219
   4317,   23.8667736,  -1.27841103,    0.7647385
   4318,   23.4147282,  -1.28968656, -0.627828121
   4319,   23.4187622,  -1.29560876,  -1.38126993
   4320,   24.4466953,  -1.27800655,  0.763258636
   4321,   24.7878304,  -1.26853549,   1.93648517
   4322,   24.5070534,  -1.26211751,   2.77824092
   4323,   24.5568123,  -1.24772584,   4.60378551
   4324,   25.8161507,  -1.24506795,   4.82684946
   4325,   25.7313614,  -1.25381613,   3.72213721
   4326,   25.5791054,  -1.26071525,   2.85871649
   4327,   25.4641609,  -1.26807475,   1.93335426
   4328,   25.5017052,  -1.27858698,  0.593173623
   4329,   25.4850445,  -1.28594482, -0.340661108
   4330,   26.7582569,  -1.24610031,   4.60959291
   4331,   26.6327972,  -1.25305533,     3.736624
   4332,   26.7264557,  -1.26129591,   2.68017602
   4333,   26.4712925,  -1.27115667,   1.44954395
   4334,   26.4077549,  -1.27657843,  0.765896261
   4335,   27.8403053,  -1.24350309,   4.83155632
   4336,   27.6101971,  -1.25065088,    3.9531858
   4337,   27.6375809,  -1.25869799,   2.92739224
   4338,    27.888586,   -1.2663027,   1.93744719
   4339,   28.9607887,   -1.2523396,   3.61518145
   4340,   28.6238842,  -1.26072156,   2.58006024
   4341,   29.5940208,  -1.24903142,   3.97807026
   4342,   23.2972469,  -1.28331769,  0.194230527
   4343,   1.86108637,  -1.29327738,  0.882577956
   4344,   2.04426122,  -1.29559982,  0.570464432
   4345,   23.0021019,  -1.29732192,  -1.56110322
   4346, -0.274184495,  -1.27734089,   3.09922981
   4347,   25.0683994,  -1.28792524, -0.554576457
   4348,   22.5922356,   -1.2989136,  -1.72610641
   4349,   22.6797352,  -1.29203653, -0.859496474
   4350,    22.632246,  -1.29551685,  -1.29780364
   4351,   22.7319298,  -1.28859735, -0.426681221
   4352,   22.8174038,  -1.28503644, 0.0190588497
   4353,   23.7636909,  -1.28289115,  0.204439968
   4354,   24.2332745,  -1.29188335, -0.981832147
   4355,   24.6480103,  -1.28991795,  -0.76969099
   4356,   25.8958263,  -1.28396094, -0.125745833
   4357,   23.8331833,  -1.29383767,  -1.19386578
   4358,   26.2910843,  -1.28191817, 0.0980962068
   4359,   5.60698938,   -1.2439518,   6.79890728
   4360,    21.575407,  -1.23625624,   6.32940769
   4361,   27.3554688,  -1.24293947,   4.94789886
   4362,   20.5006409,  -1.23640156,   6.41009855
   4363,   19.9604568,  -1.23465991,   6.68080044
   4364,   28.3208179,  -1.24400365,   4.72334862
   4365,   29.7564163,  -1.24530458,   4.42307425
   4366,   22.5173721,  -1.23684454,   6.16606045
   4367,   25.9212551,  -1.24121284,   5.29865789
   4368,   30.6883984,    -1.245839,   4.26653481
   4369,   19.1825333,  -1.23242676,   7.03346062
   4370,   31.1333866,  -1.24650097,   4.14845657
   4371,   22.0517464,  -1.23677886,   6.21758127
   4372,   25.4580708,  -1.24062061,   5.41695738
   4373,   29.2814236,  -1.24494219,    4.5145359
   4374,   30.2281208,  -1.24554169,   4.34783888
   4375,    21.088131,  -1.23627162,   6.37230778
   4376,   26.3902874,  -1.24181664,   5.17905426
   4377,    28.800415,  -1.24447143,   4.61944103
   4378,   23.3992882,   -1.2382828,   5.90345669
   4379,     24.97966,  -1.24023259,   5.51097727
   4380, -0.849288046,  -1.26205754,   5.07719994
   4381,  0.659415662,  -1.25845492,   5.40167046
   4382,  0.143152431,  -1.25957942,   5.30262518
   4383,   4.55344009,  -1.24872124,   6.29541349
   4384,   5.11638975,  -1.24598837,   6.58809137
   4385,   3.96257782,  -1.24970496,   6.21915293
   4386,   3.46438932,  -1.25050294,   6.16062546
   4387, -0.357435524,  -1.26078105,   5.19330168
   4388,   21.9784889,  -1.25319517,   4.15228701
   4389,   22.9706974,  -1.26744699,   2.24611688
   4390,   2.40136003,  -1.27740073,   2.85366178
   4391,    2.1285181,   -1.2803421,   2.50367522
   4392,   22.4328327,  -1.25619733,   3.72807622
   4393,   4.61150026,  -1.25432074,   5.60049248
   4394,   4.22533369,   -1.2571758,   5.27038431
   4395,    3.5457828,  -1.26401138,   4.45820761
   4396,   22.7628002,  -1.26410198,   2.69152498
   4397,   20.8631401,  -1.24480546,   5.33370352
   4398,   22.5797138,  -1.26053786,   3.16131639
   4399,   20.0997162,   -1.2401315,   6.00792694
   4400,    23.189476,  -1.27069604,   1.81132758
   4401,   1.86421752,  -1.28236806,    2.2696929
   4402,   5.38088655,  -1.24853146,   6.27158022
   4403,  0.231919721,  -1.29342401,   1.01236403
   4404, -0.0805461705,  -1.28499985,   2.11096644
   4405,  0.198236778,  -1.28881788,   1.60074484
   4406, -0.253598809,  -1.28153849,   2.56566548
   4407,  -0.72581476,     -1.26589,   4.58635521
   4408,  -0.60486871,  -1.26966381,    4.0997963
   4409,   26.6691227,  -1.27975178,   0.33918035
   4410,   30.5380001,  -1.25208533,   3.49621034
   4411,   29.7120037,  -1.25682461,     2.974998
   4412,   28.1723194,  -1.26884043,    1.5888468
   4413,   30.8537769,  -1.24936092,   3.81065059
   4414,   27.0407791,  -1.27723372,  0.625094056
   4415,   29.3028316,  -1.25990379,   2.62158966
   4416,   27.7953281,  -1.27169359,   1.26044023
   4417,   27.4155388,  -1.27451682,  0.936158419
   4418,   28.9205151,  -1.26299214,   2.26409292
   4419,   30.1473961,   -1.2544167,   3.23976421
   4420,  0.391107589,  -1.29717362,  0.521144211
   4421,   1.50719571,  -1.29632545,  0.527180195
   4422,   23.0753269,  -1.28773022, -0.348096222
   4423,    23.037714,  -1.25955713,   3.23792005
   4424,   1.30363238,    -1.280393,   2.57176495
   4425,  0.727427721,  -1.29040349,   1.35140228
   4426,   24.0834217,  -1.28030312,  0.504376352
   4427,   22.9696198,  -1.23707771,   6.09510994
   4428,   23.1071224,   -1.2410984,   5.57883644
   4429,   1.52330112,  -1.29308438,  0.937850833
   4430,   22.7149105,  -1.25205445,   4.22143602
   4431,   24.9316597,  -1.28521478, -0.197619498
   4432,   3.57392454,    -1.258883,   5.09985495
   4433,    22.004179,  -1.24122322,   5.66361427
   4434,   28.1923389,  -1.24765694,   4.28076887
   4435,   23.3991966,  -1.29285192,  -1.02893937
   4436,   19.6859722,  -1.23812509,   6.30542421
   4437,   23.0152645,   -1.2942127,  -1.16693068
   4438,   23.0441418,   -1.2909044, -0.748882234
   4439,   21.1618176,  -1.24095285,   5.77487946
   4440,   23.7754688,  -1.29133034, -0.869781792
   4441, 0.0566696115,  -1.28105009,        2.602
   4442,   25.3970451,  -1.24418259,    4.9776783
   4443,   24.4775047,  -1.24012601,   5.57177019
   4444,   30.4921532,  -1.24873865,   3.93332815
   4445,   28.6587734,  -1.24807882,   4.18456602
   4446,   29.1328583,  -1.24862266,    4.0721488
   4447,   24.9554081,  -1.24393094,   5.04999447
   4448,   23.5605888,  -1.26865995,   2.03266406
   4449,   1.27594781,  -1.25733256,   5.49113607
   4450,   4.37732935,  -1.25255418,     5.831357
   4451,  0.249946952,  -1.26358962,   4.80467987
   4452,   25.7065277,  -1.28110349,  0.254469812
   4453,   25.3257885,   -1.2832247, 0.0194717459
   4454,   2.67027307,  -1.27415109,   3.24362969
   4455,   1.70067322,  -1.28700864,   1.69444489
   4456,   21.2497654,  -1.24744642,   4.95733309
   4457,   23.4108887,  -1.27377665,   1.39793515
   4458,   26.7631836,  -1.27419102,   1.03705776
   4459,   29.4501495,  -1.25356674,   3.41448188
   4460,   28.2556248,  -1.26355386,   2.25350356
   4461,  0.096564658,  -1.27487516,   3.38358331
   4462,  0.937332928,  -1.29603326,  0.616339743
   4463,   23.1634579,  -1.26269877,   2.82692885
   4464,   3.42434645,    -1.254251,    5.7025156
   4465,    1.6347549,  -1.29007375,   1.31066072
   4466,   2.39441752,  -1.27199054,   3.54070282
   4467,   1.39070714,  -1.28716838,   1.70223475
   4468,   24.5059166,   -1.2440871,   5.07112837
   4469,   1.21076453,  -1.26190054,   4.93178177
   4470,    24.029377,  -1.27367556,   1.35207748
   4471,   23.9744873,  -1.28393757, 0.0521450341
   4472,  0.336740077,  -1.26745737,   4.30493116
   4473,   23.4397507,  -1.25870836,   3.30917072
   4474,   24.9612083,   -1.2476933,   4.57100058
   4475,   25.1514645,  -1.28072691,  0.353024155
   4476,   1.96064961,  -1.25850654,   5.29495764
   4477,   1.19170868,  -1.28494179,   2.00354218
   4478,   24.5256042,   -1.2872535, -0.419808418
   4479,   23.3924866,  -1.24349999,   5.24740744
   4480,   22.3165112,  -1.24487257,   5.17104912
   4481,   23.2550106,  -1.25226271,   4.14565039
   4482,   3.25771546,  -1.26239181,   4.68253183
   4483,   21.5962429,  -1.24432862,   5.30596876
   4484,   24.1638565,  -1.26890302,    1.9466933
   4485,   20.6980343,  -1.24006724,   5.92983723
   4486,  0.263525516,  -1.28292322,   2.34493661
   4487, -0.0442012325,  -1.27192485,   3.77160072
   4488,   24.2450314,  -1.26447737,   2.50207138
   4489,  0.923490286,  -1.28741837,   1.71310318
   4490,   24.3949013,  -1.28474092, -0.0883797109
   4491,  0.886064589,   -1.2814312,    2.4778583
   4492,    24.976656,  -1.27832997,  0.673761785
   4493,   2.36284995,  -1.26680863,   4.20253086
   4494,   24.1580582,  -1.24824131,   4.57462215
   4495,  0.846561611,  -1.26707447,   4.30710268
   4496,    2.5258882,  -1.25625086,   5.53020191
   4497,   22.9728756,  -1.24560499,   5.01802349
   4498,   22.7189388,  -1.24300683,   5.37157774
   4499,   23.9216442,  -1.25986779,   3.11773872
   4500,   21.9552097,  -1.24737275,   4.88610649
   4501,   23.6951408,  -1.28938055, -0.614512324
   4502,   2.32801056,  -1.26148391,    4.8828063
   4503,  0.148134157,  -1.27885807,   2.87240505
   4504,   25.6188431,  -1.24954236,   4.27587223
   4505,   29.0054283,  -1.25762212,   2.93937564
   4506,   2.69135165,   -1.2589097,   5.17699814
   4507,   1.11865354,  -1.29221344,    1.0855267
   4508,   24.5024357,  -1.26641452,   2.23224664
   4509,   25.7796021,  -1.27619934,  0.871426105
   4510,   24.5363026,  -1.25136065,   4.14344645
   4511,   22.8342381,   -1.2494204,   4.54549885
   4512,   28.6707897,  -1.25579107,   3.20276546
   4513,   1.20335662,  -1.27738321,   2.96364713
   4514,   25.3615513,  -1.27398658,    1.1909616
   4515,   24.2826099,  -1.25520957,   3.67715335
   4516,   24.2245178,  -1.25078452,   4.24515343
   4517,   2.95127726,  -1.26565015,   4.29615211
   4518,   1.47749603,  -1.26621354,   4.35899496
   4519,   2.03911996,  -1.26464939,   4.50665855
   4520,   26.1827755,  -1.24950159,   4.22958565
   4521,   24.8008022,   -1.2636106,   2.56156778
   4522,   25.0289097,  -1.25194919,   4.02364397
   4523,   23.7435589,  -1.24986911,   4.40545225
   4524,   24.7801533,  -1.28275609,  0.128859296
   4525,    26.104353,  -1.27364707,    1.1663394
   4526,   22.3026695,  -1.25010037,    4.5075407
   4527,   1.63803387,  -1.27468455,   3.26714826
   4528,   1.99866414,   -1.2540158,   5.83334494
   4529,   27.2414188,  -1.24657953,   4.50456142
   4530,   24.4175835,  -1.27112782,   1.64063168
   4531,   3.23945022,   -1.2674042,   4.05295658
   4532,   1.40306258,  -1.27604711,   3.11532617
   4533,    23.958622,  -1.25264215,   4.03320789
   4534,   24.6580677,   -1.2734158,   1.32773936
   4535,   24.2495975,  -1.27585173,   1.05525875
   4536,   25.0763512,  -1.27097309,   1.60019076
   4537,   23.1695232,  -1.24850941,   4.63073349
   4538,   24.2899513,  -1.25883341,   3.21567059
   4539,   26.2782192,  -1.24564934,   4.71074581
   4540,    1.2696166,  -1.26913953,   4.00589943
   4541,   1.80208898,  -1.26777613,   4.13067055
   4542,   26.1864052,  -1.25323582,    3.7544136
   4543,    25.773777,  -1.27086449,   1.55035472
   4544,   26.8716888,  -1.24237287,   5.06432295
   4545,   28.3067741,  -1.25841129,   2.90278053
   4546,   27.7246742,  -1.24710834,   4.39319801
   4547,   23.3581333,  -1.25651574,   3.59542322
   4548,   26.2184238,  -1.25673854,   3.30607557
   4549,  0.898638248,  -1.27632821,   3.12562442
   4550,    26.166399,  -1.26817942,   1.85596251
   4551,   27.1418266,  -1.24995625,   4.08426189
   4552,   27.9752254,  -1.25539184,   3.31700444
   4553,    24.742239,  -1.25589859,   3.54759002
   4554,   1.44779372,  -1.27260089,   3.54948568
   4555,   27.0579224,   -1.2530297,   3.70108747
   4556,   25.8258114,  -1.25733054,   3.26662135
   4557,   26.5728436,  -1.26596737,   2.10017061
   4558,    26.675333,  -1.24961114,    4.1707058
   4559,   28.0692368,  -1.25121081,   3.84008551
   4560,   23.6328754,  -1.27639437,   1.04375625
   4561,   26.6745014,  -1.25667262,   3.27282453
   4562,   25.1209908,  -1.26572776,   2.26311994
   4563,   25.3950138,  -1.26293957,   2.59267735
   4564,   27.4924278,  -1.25392818,   3.54718447
   4565,   26.2389717,   -1.2599529,   2.89544511
   4566,   26.3490715,   -1.2631135,   2.48349524
   4567,   27.2311001,  -1.26632321,   1.99484098
   4568,    28.516737,  -1.25141752,   3.77296329
   4569,   27.0056171,  -1.25543129,   3.40046859
   4570,   25.0611954,  -1.26028311,   2.96094251
   4571,   25.8579941,  -1.26474786,   2.32047486
   4572,    26.961668,  -1.26375496,   2.34600782
   4573,   25.0412865,  -1.25700355,   3.37979007
   4574,   27.2919788,  -1.25681436,   3.19845343
   4575,   27.5975647,  -1.26378191,   2.28455305
   4576, -0.143127456,  -1.26844895,   4.22264576
   4577,   1.14828515,  -1.27289927,   3.53886414
   4578,   27.5121708,  -1.26902938,   1.62506664
   4579,   18.3997993,  -1.23162138,   7.22044706
   4580,   25.3246899,  -1.25526083,   3.57553816
   4581,   24.0424805,   -1.2448504,   5.01637459
   4582,   28.5458031,  -1.26595414,   1.92177522
   4583,   18.5989704,  -1.23299384,    7.0442853
   4584,   18.8803864,  -1.23447621,   6.80665302
   4585,   15.6611795,  -1.22882533,   8.05513477
   4586,   15.2696934,  -1.22943068,   8.14324951
   4587,   19.2627869,  -1.23610055,   6.56519938
   4588,   2.48477173,  -1.25280261,   5.95244455
   4589,   2.96762419,  -1.25148797,   6.07842207
   4590,   23.5203171,  -1.28133631,  0.425857306
   4591,   23.0447693,  -1.28534913, -0.0425150506
   4592,   6.55943727,  -1.24050522,   7.15888548
   4593,   7.01124096,  -1.23850536,   7.32884216
   4594,   7.37476969,   -1.2369442,   7.45956898
   4595,   8.44607258,  -1.23594093,   7.71540213
   4596,   8.83481312,  -1.23687315,   7.81790066
   4597,   9.31391048,  -1.23830211,   7.94518471
   4598,   9.80556011,  -1.23897564,   8.06927967
   4599,   7.56892204,  -1.23821115,   7.39242077
   4600,    7.1846056,  -1.23976851,   7.20100355
   4601,   6.73922586,  -1.24254048,    6.9907527
   4602,   6.28204966,  -1.24426103,   6.76993608
   4603,   5.82934618,  -1.24621534,   6.53321075
   4604,   2.94863057,  -1.27078962,    3.6472404
   4605,   14.7882185,  -1.22874939,   8.24983692
   4606,   14.2922335,  -1.22799504,   8.35224533
   4607,   13.7899265,  -1.22747493,   8.44358826
   4608,   13.2927341,  -1.22644258,   8.51933193
   4609,   12.7994385,  -1.22498262,   8.56882191
   4610,   12.3046093,  -1.22717559,   8.52985668
   4611,   11.8022203,  -1.22891057,   8.46465492
   4612,   11.3006935,   -1.2318753,   8.38232899
   4613,   10.8000259,  -1.23502493,   8.28868961
   4614,   10.3013134,  -1.23784101,   8.18394184
   4615,   30.0690136,   -1.2488333,   3.95990825
   4616,   26.0554218,   -1.2789402,  0.497723043
   4617,   27.1330471,  -1.27167416,   1.32336271
   4618,   1.26414549,  -1.28925264,   1.44874954
   4619,   22.5232086,  -1.24013603,   5.75449038
   4620,   23.3436031,  -1.26574779,   2.42277694
   4621,   30.3689098,  -1.25095761,   3.66241503
   4622,   30.0091209,  -1.25197828,   3.56546378
   4623,   23.9407063,  -1.28670299, -0.296431929
   4624,   1.87040997,  -1.27731681,   2.91122437
   4625,    2.1340158,  -1.27490532,   3.19383121
   4626,   26.8462124,  -1.26881719,   1.71282876
   4627,   27.9533596,  -1.26109517,   2.59374809
   4628,   2.98459029,  -1.25708461,   5.38231945
   4629,   23.5522366,   -1.2613188,   2.96695232
   4630,   23.9191399,  -1.26658559,   2.26371813
   4631,   25.3136597,  -1.24714518,   4.60855579
   4632,   23.4917889,  -1.28609562, -0.178229406
   4633,  0.539980173,   -1.2767297,   3.10729074
   4634,   2.96589398,  -1.26083994,   4.90650654
   4635,   24.2693043,  -1.28233099,  0.229540125
   4636,   24.6178265,  -1.28033268,  0.451843709
   4637,  0.262849182,  -1.27690375,   3.11045003
   4638,    3.2542994,  -1.25782692,   5.26331854
   4639,   28.4009285,  -1.25417888,   3.43239045
   4640,   1.87250543,  -1.27252889,   3.51986742
   4641,   2.11122823,  -1.26981115,   3.84368563
   4642,   24.8455276,  -1.27586508,  0.999170721
   4643,  0.425828785,  -1.27396715,   3.46900082
   4644,  0.772086561,  -1.27114642,   3.79610109
   4645,   25.2869797,  -1.27699327,  0.815428615
   4646,   23.8146992,  -1.25712574,   3.47618961
   4647,   27.3088665,  -1.26137173,   2.61739159
   4648,   24.0365353,  -1.26240098,   2.78512692
   4649,   27.0157623,  -1.25912762,   2.92950964
   4650,  0.684813321,  -1.27367938,   3.48195958
   4651,    1.1812681,  -1.26510429,   4.52707815
   4652,   24.2810211,  -1.26113617,   2.92366433
   4653,    24.651165,  -1.25925958,   3.12849903
   4654,   25.4532299,  -1.25839257,   3.16555762
   4655,   25.8841553,  -1.26066089,   2.83779788
   4656,   26.5420589,  -1.25932765,   2.94729018
   4657,   24.1252441, -0.550000131,  -0.63568604
   4658,   1.53322041, -0.550000131,   2.13634729
   4659,   1.61160481, -0.550000131,   2.71459413
   4660,   1.59160483, -0.550000131,     3.805933
   4661,   1.67317796, -0.550000131,   4.78305197
   4662,   1.58176529, -0.550000131,   5.83872652
   4663,   2.97144723, -0.550000131,   5.68265629
   4664,   2.64687014, -0.550000131,   4.56492901
   4665,   2.65984368, -0.550000131,   3.91479015
   4666,  0.618446529, -0.550000131,   1.01297438
   4667,  0.573070824, -0.550000131,   2.02990246
   4668,  0.493135035, -0.550000131,   2.68910813
   4669,  0.373334646, -0.550000131,   3.85958004
   4670,  0.733100653, -0.550000131,   4.88439846
   4671, -0.466453254, -0.550000131,   3.61583281
   4672, -0.241793469, -0.550000131,   4.70594215
   4673,   3.91159296, -0.550000131,   5.63621378
   4674,   3.87119627, -0.550000131,   4.86954355
   4675,    4.9583292, -0.550000131,   5.96255016
   4676,   6.08658552, -0.550000131,   6.98315096
   4677,   19.5087242, -0.550000131,   6.88080978
   4678,   20.4592285, -0.550000131,   5.65625668
   4679,   21.5597668, -0.550000131,   5.93120432
   4680,   21.6088905, -0.550000131,   4.55805874
   4681,   22.8740616, -0.550000131,   5.81802511
   4682,   22.6083355, -0.550000131,   4.80770254
   4683,   23.0221329, -0.550000131,   3.67325521
   4684,   23.8848248, -0.550000131,    5.5898962
   4685,   23.6007481, -0.550000131,   4.82530975
   4686,   23.6084442, -0.550000131,   3.81018949
   4687,   23.7110634, -0.550000131,   2.60497975
   4688,   23.7952423, -0.550000131,   1.67340219
   4689,   23.8667736, -0.550000131,    0.7647385
   4690,   23.4147282, -0.550000131, -0.627828121
   4691,   23.4187622, -0.550000131,  -1.38126147
   4692,   24.4466953, -0.550000131,  0.763258636
   4693,   24.7878304, -0.550000131,   1.93648517
   4694,   24.5070534, -0.550000131,   2.77824092
   4695,   24.5568123, -0.550000131,   4.60378551
   4696,   25.8161507, -0.550000131,   4.82684946
   4697,   25.7313614, -0.550000131,   3.72213721
   4698,   25.5791054, -0.550000131,   2.85871649
   4699,   25.4641609, -0.550000131,   1.93335426
   4700,   25.5017052, -0.550000131,  0.593173623
   4701,   25.4850101, -0.550000131, -0.340552807
   4702,   26.7582569, -0.550000131,   4.60959291
   4703,   26.6327972, -0.550000131,     3.736624
   4704,   26.7264557, -0.550000131,   2.68017602
   4705,   26.4712925, -0.550000131,   1.44954395
   4706,   26.4077549, -0.550000131,  0.765896261
   4707,   27.8401108, -0.550000131,   4.83056879
   4708,   27.6101971, -0.550000131,    3.9531858
   4709,   27.6375809, -0.550000131,   2.92739224
   4710,    27.888586, -0.550000131,   1.93744719
   4711,   28.9607887, -0.550000131,   3.61518145
   4712,   28.6238842, -0.550000131,   2.58006024
   4713,   29.5940208, -0.550000131,   3.97807026
   4714,   23.2973976, -0.550000131,  0.194152921
   4715,   1.86105704, -0.550000131,  0.882555842
   4716,   2.04425025, -0.550000131,  0.570465028
   4717,   23.0021019, -0.550000131,  -1.56110418
   4718, -0.273747027, -0.550000131,   3.09905767
   4719,   25.0683746, -0.550000131, -0.554491162
   4720,   22.5922356, -0.550000131,  -1.72610772
   4721,   22.6797771, -0.550000131, -0.859469473
   4722,   22.6322556, -0.550000131,  -1.29779053
   4723,   22.7320347, -0.550000131, -0.426647544
   4724,   22.8175888, -0.550000131, 0.0189242288
   4725,   23.7636909, -0.550000131,  0.204439968
   4726,   24.2332649, -0.550000131, -0.981791854
   4727,    24.647995, -0.550000131, -0.769629598
   4728,   25.8957806, -0.550000131, -0.125614032
   4729,   23.8331795, -0.550000131,  -1.19384265
   4730,   26.2910213, -0.550000131, 0.0982466862
   4731,   5.60751295, -0.550000131,   6.79769373
   4732,   21.5753193, -0.550000131,   6.32871485
   4733,   27.3552666, -0.550000131,   4.94693851
   4734,    20.500515, -0.550000131,    6.4095974
   4735,   19.9601402, -0.550000131,   6.68030596
   4736,   28.3206196, -0.550000131,    4.7223196
   4737,   29.7562637, -0.550000131,   4.42184114
   4738,    22.517374, -0.550000131,   6.16519642
   4739,   25.9210243, -0.550000131,   5.29775429
   4740,   30.6881294, -0.550000131,   4.26507664
   4741,   19.1824417, -0.550000131,   7.03258705
   4742,    31.132103, -0.550000131,   4.14780188
   4743,   22.0516548, -0.550000131,   6.21684551
   4744,   25.4578953, -0.550000131,   5.41605949
   4745,   29.2812347, -0.550000131,   4.51340914
   4746,   30.2279835, -0.550000131,   4.34645844
   4747,   21.0882397, -0.550000131,   6.37170839
   4748,   26.3900757, -0.550000131,   5.17813778
   4749,   28.8002033, -0.550000131,   4.61836958
   4750,   23.3987312, -0.550000131,   5.90278482
   4751,   24.9795837, -0.550000131,   5.51013803
   4752, -0.847497582, -0.550000131,   5.07581663
   4753,  0.659352183, -0.550000131,   5.40002632
   4754,  0.143347651, -0.550000131,   5.30089998
   4755,   4.55342007, -0.550000131,    6.2948451
   4756,   5.11697626, -0.550000131,   6.58711052
   4757,   3.96246481, -0.550000131,    6.2179718
   4758,   3.46443081, -0.550000131,   6.15925312
   4759,  -0.35714075, -0.550000131,   5.19151402
   4760,   21.9790115, -0.550000131,   4.15315104
   4761,   22.9712601, -0.550000131,   2.24650574
   4762,   2.40117002, -0.550000131,   2.85389566
   4763,   2.12843156, -0.550000131,   2.50382233
   4764,    22.433321, -0.550000131,   3.72838426
   4765,   4.61062288, -0.550000131,   5.60160589
   4766,   4.22469139, -0.550000131,   5.27134848
   4767,   3.54513288, -0.550000131,   4.45882988
   4768,   22.7634754, -0.550000131,   2.69189477
   4769,   20.8639278, -0.550000131,   5.33508873
   4770,   22.5804501, -0.550000131,   3.16152048
   4771,   20.1009445, -0.550000131,   6.00921822
   4772,   23.1898918, -0.550000131,   1.81165373
   4773,   1.86419344, -0.550000131,   2.26978016
   4774,   5.38035631, -0.550000131,   6.27278662
   4775,  0.231988147, -0.550000131,   1.01233041
   4776, -0.0803270042, -0.550000131,    2.1110661
   4777,  0.198287398, -0.550000131,   1.60069323
   4778, -0.253155947, -0.550000131,   2.56563187
   4779, -0.724629402, -0.550000131,   4.58641863
   4780,  -0.60391438, -0.550000131,   4.09985781
   4781,   26.6690464, -0.550000131,  0.339344949
   4782,   30.5374489, -0.550000131,   3.49678516
   4783,   29.7118759, -0.550000131,    2.9751308
   4784,   28.1723175, -0.550000131,   1.58884037
   4785,   30.8529186, -0.550000131,   3.81104112
   4786,   27.0407352, -0.550000131,  0.625197709
   4787,    29.302721, -0.550000131,   2.62163353
   4788,   27.7953262, -0.550000131,    1.2604537
   4789,   27.4155235, -0.550000131,  0.936209857
   4790,   28.9204578, -0.550000131,   2.26410246
   4791,    30.147213, -0.550000131,   3.24009299
   4792,  0.391124099, -0.550000131,  0.521130741
   4793,   1.50719607, -0.550000131,  0.527178824
   4794,    23.075386, -0.550000131, -0.348077357
   4795,   23.0377541, -0.550000131,   3.23793101
   4796,   1.30363238, -0.550000131,   2.57176495
   4797,  0.727429152, -0.550000131,   1.35140073
   4798,   24.0834217, -0.550000131,  0.504376352
   4799,   22.9693604, -0.550000131,   6.09422207
   4800,   23.1071148, -0.550000131,   5.57882738
   4801,   1.52330375, -0.550000131,  0.937852025
   4802,   22.7149544, -0.550000131,    4.2214632
   4803,   24.9316597, -0.550000131, -0.197619423
   4804,   3.57356906, -0.550000131,   5.10020447
   4805,   22.0041485, -0.550000131,   5.66337013
   4806,   28.1922398, -0.550000131,   4.28025532
   4807,   23.3991966, -0.550000131,  -1.02893496
   4808,   19.6868954, -0.550000131,   6.30737638
   4809,   23.0152683, -0.550000131,  -1.16692185
   4810,   23.0441628, -0.550000131, -0.748868704
   4811,    21.161768, -0.550000131,   5.77448988
   4812,   23.7754688, -0.550000131, -0.869778216
   4813, 0.0568119399, -0.550000131,   2.60198903
   4814,   25.3969631, -0.550000131,   4.97726297
   4815,   24.4775772, -0.550000131,   5.57102346
   4816,    30.492054, -0.550000131,   3.93267107
   4817,   28.6587219, -0.550000131,   4.18429756
   4818,   29.1328335, -0.550000131,   4.07202625
   4819,   24.9553642, -0.550000131,   5.04976225
   4820,   23.5607948, -0.550000131,   2.03282619
   4821,   1.27532399, -0.550000131,   5.48969221
   4822,   4.37699366, -0.550000131,   5.83159542
   4823,  0.250044346, -0.550000131,   4.80381775
   4824,   25.7065048, -0.550000131,  0.254533648
   4825,   25.3257713, -0.550000131,  0.019525731
   4826,   2.66996527, -0.550000131,   3.24395466
   4827,   1.70060194, -0.550000131,   1.69446886
   4828,   21.2506943, -0.550000131,    4.9583869
   4829,   23.4111671, -0.550000131,    1.3981781
   4830,   26.7631836, -0.550000131,   1.03705788
   4831,   29.4501724, -0.550000131,   3.41446018
   4832,   28.2556248, -0.550000131,   2.25350356
   4833, 0.0967634171, -0.550000131,   3.38350511
   4834,  0.937330782, -0.550000131,  0.616338372
   4835,   23.1634979, -0.550000131,    2.8269453
   4836,   3.42436743, -0.550000131,   5.70182085
   4837,   1.63471127, -0.550000131,   1.31070507
   4838,   2.39441514, -0.550000131,    3.5407052
   4839,   1.39068282, -0.550000131,   1.70224297
   4840,   24.5059528, -0.550000131,   5.07077026
   4841,   1.21071804, -0.550000131,     4.931674
   4842,    24.029377, -0.550000131,   1.35207748
   4843,   23.9744873, -0.550000131, 0.0521450378
   4844,  0.336743742, -0.550000131,   4.30489874
   4845,   23.4397717, -0.550000131,   3.30917645
   4846,   24.9611855, -0.550000131,   4.57087564
   4847,   25.1514568, -0.550000131,  0.353050768
   4848,   1.96044457, -0.550000131,   5.29448271
   4849,    1.1917125, -0.550000131,   2.00354099
   4850,   24.5256042, -0.550000131, -0.419808269
   4851,    23.392374, -0.550000131,   5.24716187
   4852,   22.3165092, -0.550000131,   5.17104006
   4853,    23.255003, -0.550000131,   4.14564657
   4854,   3.25738883, -0.550000131,   4.68284464
   4855,   21.5967178, -0.550000131,   5.30640268
   4856,   24.1638565, -0.550000131,    1.9466933
   4857,   20.6984177, -0.550000131,   5.93011713
   4858,  0.263619453, -0.550000131,   2.34499145
   4859, -0.0438715778, -0.550000131,   3.77167392
   4860,   24.2450314, -0.550000131,   2.50207138
   4861,  0.923492968, -0.550000131,   1.71310186
   4862,   24.3949013, -0.550000131, -0.0883797109
   4863,  0.886067092, -0.550000131,   2.47785735
   4864,    24.976656, -0.550000131,  0.673760891
   4865,   2.36284995, -0.550000131,   4.20253086
   4866,   24.1580582, -0.550000131,   4.57462215
   4867,  0.846562624, -0.550000131,   4.30709362
   4868,   2.52587771, -0.550000131,   5.53017759
   4869,   22.9728241, -0.550000131,   5.01790857
   4870,   22.7189121, -0.550000131,   5.37152004
   4871,   23.9216442, -0.550000131,   3.11773872
   4872,    21.955616, -0.550000131,   4.88656807
   4873,   23.6951408, -0.550000131, -0.614511073
   4874,   2.32791829, -0.550000131,    4.8825922
   4875,  0.148210913, -0.550000131,   2.87239671
   4876,   25.6188431, -0.550000131,   4.27587223
   4877,   29.0054359, -0.550000131,   2.93936682
   4878,   2.69134021, -0.550000131,   5.17697144
   4879,   1.11865258, -0.550000131,   1.08552611
   4880,   24.5024357, -0.550000131,   2.23224664
   4881,   25.7796021, -0.550000131,  0.871426105
   4882,   24.5363026, -0.550000131,   4.14344645
   4883,   22.8342533, -0.550000131,   4.54550838
   4884,   28.6707935, -0.550000131,   3.20276141
   4885,   1.20335662, -0.550000131,   2.96364713
   4886,   25.3615513, -0.550000131,    1.1909616
   4887,   24.2826099, -0.550000131,   3.67715335
   4888,   24.2245178, -0.550000131,   4.24515343
   4889,   2.95127869, -0.550000131,   4.29615068
   4890,   1.47749603, -0.550000131,   4.35899496
   4891,   2.03911781, -0.550000131,   4.50665331
   4892,   26.1827755, -0.550000131,   4.22958565
   4893,   24.8008022, -0.550000131,   2.56156778
   4894,   25.0289154, -0.550000131,     4.023664
   4895,   23.7435551, -0.550000131,   4.40545034
   4896,   24.7801533, -0.550000131,  0.128859505
   4897,    26.104353, -0.550000131,    1.1663394
   4898,   22.3029251, -0.550000131,   4.50783205
   4899,   1.63803387, -0.550000131,   3.26714826
   4900,   1.99831462, -0.550000131,   5.83154392
   4901,   27.2414188, -0.550000131,   4.50455809
   4902,   24.4175835, -0.550000131,   1.64063168
   4903,   3.23891258, -0.550000131,    4.0534811
   4904,   1.40306258, -0.550000131,   3.11532617
   4905,    23.958622, -0.550000131,   4.03320789
   4906,   24.6580677, -0.550000131,   1.32773936
   4907,   24.2495975, -0.550000131,   1.05525875
   4908,   25.0763512, -0.550000131,   1.60019076
   4909,   23.1694889, -0.550000131,   4.63066578
   4910,   24.2899513, -0.550000131,   3.21567059
   4911,   26.2782211, -0.550000131,   4.71075487
   4912,    1.2696166, -0.550000131,   4.00589895
   4913,   1.80208898, -0.550000131,   4.13067055
   4914,   26.1864052, -0.550000131,    3.7544136
   4915,    25.773777, -0.550000131,   1.55035472
   4916,   26.8714886, -0.550000131,    5.0633812
   4917,    28.306776, -0.550000131,   2.90277863
   4918,    27.724577, -0.550000131,   4.39270353
   4919,   23.3581409, -0.550000131,   3.59542513
   4920,   26.2184238, -0.550000131,   3.30607557
   4921,   0.89863807, -0.550000131,   3.12562418
   4922,    26.166399, -0.550000131,   1.85596251
   4923,   27.1418266, -0.550000131,   4.08426046
   4924,   27.9752274, -0.550000131,   3.31700325
   4925,   24.7422428, -0.550000131,   3.54759932
   4926,   1.44779372, -0.550000131,   3.54948568
   4927,   27.0579224, -0.550000131,   3.70108747
   4928,   25.8258114, -0.550000131,   3.26662135
   4929,   26.5728436, -0.550000131,   2.10017061
   4930,    26.675333, -0.550000131,   4.17070484
   4931,   28.0691833, -0.550000131,   3.83980751
   4932,   23.6330547, -0.550000131,   1.04391527
   4933,   26.6745014, -0.550000131,   3.27282476
   4934,   25.1209908, -0.550000131,   2.26311994
   4935,   25.3950138, -0.550000131,   2.59267735
   4936,   27.4924278, -0.550000131,   3.54718399
   4937,   26.2389717, -0.550000131,   2.89544511
   4938,   26.3490715, -0.550000131,   2.48349524
   4939,   27.2311001, -0.550000131,   1.99484098
   4940,   28.5167141, -0.550000131,   3.77284145
   4941,   27.0056171, -0.550000131,   3.40046859
   4942,   25.0611954, -0.550000131,   2.96094251
   4943,   25.8579941, -0.550000131,   2.32047486
   4944,    26.961668, -0.550000131,   2.34600782
   4945,   25.0412884, -0.550000131,   3.37979341
   4946,   27.2919788, -0.550000131,   3.19845319
   4947,   27.5975647, -0.550000131,   2.28455305
   4948, -0.142953783, -0.550000131,   4.22268391
   4949,   1.14828503, -0.550000131,   3.53886366
   4950,   27.5121708, -0.550000131,   1.62507331
   4951,   18.4002514, -0.550000131,   7.22080851
   4952,   25.3246918, -0.550000131,   3.57554698
   4953,   24.0424862, -0.550000131,   5.01615763
   4954,   28.5457821, -0.550000131,   1.92176771
   4955,   18.6010094, -0.550000131,   7.04465008
   4956,   18.8803864, -0.550000131,   6.80665302
   4957,   15.6620646, -0.550000131,   8.06082058
   4958,   15.2714767, -0.550000131,    8.1505146
   4959,   19.2627869, -0.550000131,   6.56519938
   4960,   2.48516631, -0.550000131,   5.95085239
   4961,   2.96787643, -0.550000131,   6.07691479
   4962,   23.5204639, -0.550000131,  0.425696999
   4963,   23.0449047, -0.550000131, -0.0425841063
   4964,   6.56008482, -0.550000131,   7.15946865
   4965,   7.01143694, -0.550000131,    7.3261199
   4966,   7.37513208, -0.550000131,   7.45604753
   4967,   8.44535828, -0.550000131,     7.718256
   4968,   8.83324051, -0.550000131,   7.82355452
   4969,   9.31171417, -0.550000131,   7.95353556
   4970,   9.80315208, -0.550000131,   8.07924175
   4971,   7.56861115, -0.550000131,   7.39303732
   4972,    7.1846056, -0.550000131,   7.20100355
   4973,   6.73922968, -0.550000131,   6.99532938
   4974,   6.28226662, -0.550000131,   6.77325583
   4975,    5.8286376, -0.550000131,   6.53477907
   4976,   2.94820595, -0.550000131,   3.64766145
   4977,   14.7886505, -0.550000131,   8.25772381
   4978,   14.2923622, -0.550000131,   8.35989666
   4979,   13.7925739, -0.550000131,   8.45063782
   4980,    13.291769, -0.550000131,   8.52550697
   4981,   12.7994385, -0.550000131,   8.56882191
   4982,   12.3056669, -0.550000131,   8.53617191
   4983,   11.8025436, -0.550000131,   8.47227287
   4984,   11.2991638, -0.550000131,    8.3916502
   4985,   10.7980366, -0.550000131,   8.29915333
   4986,   10.2989912, -0.550000131,   8.19468975
   4987,   30.0689507, -0.550000131,   3.95924687
   4988,   26.0553913, -0.550000131,  0.497796923
   4989,   27.1330395, -0.550000131,   1.32338858
   4990,   1.26413178, -0.550000131,   1.44875324
   4991,   22.5231972, -0.550000131,    5.7543931
   4992,   23.3437386, -0.550000131,   2.42287493
   4993,   30.3686695, -0.550000131,   3.66241074
   4994,   30.0090313, -0.550000131,   3.56528878
   4995,   23.9407063, -0.550000131, -0.296431571
   4996,   1.87040734, -0.550000131,   2.91122866
   4997,   2.13400865, -0.550000131,   3.19384027
   4998,   26.8462124, -0.550000131,   1.71282887
   4999,   27.9533615, -0.550000131,   2.59374714
   5000,   2.98458672, -0.550000131,   5.38231134
   5001,   23.5522556, -0.550000131,   2.96696043
   5002,   23.9191456, -0.550000131,   2.26372218
   5003,   25.3136253, -0.550000131,    4.6083765
   5004,   23.4918804, -0.550000131, -0.178284481
   5005,  0.539980173, -0.550000131,   3.10729074
   5006,   2.96572089, -0.550000131,   4.90665388
   5007,   24.2693043, -0.550000131,  0.229540125
   5008,   24.6178265, -0.550000131,  0.451843262
   5009,   0.26293841, -0.550000131,   3.11042261
   5010,   3.25413942, -0.550000131,   5.26346302
   5011,   28.4009228, -0.550000131,    3.4323473
   5012,   1.87250185, -0.550000131,   3.51987195
   5013,   2.11122632, -0.550000131,   3.84368801
   5014,   24.8455276, -0.550000131,  0.999170244
   5015,  0.425914705, -0.550000131,   3.46896696
   5016,  0.772086918, -0.550000131,   3.79609752
   5017,   25.2869797, -0.550000131,  0.815428317
   5018,   23.8146973, -0.550000131,   3.47618914
   5019,   27.3088665, -0.550000131,   2.61739159
   5020,   24.0365353, -0.550000131,   2.78512692
   5021,   27.0157623, -0.550000131,   2.92950964
   5022,  0.684844255, -0.550000131,   3.48194599
   5023,   1.18125343, -0.550000131,   4.52704048
   5024,   24.2810211, -0.550000131,   2.92366433
   5025,   24.6511669, -0.550000131,   3.12850356
   5026,   25.4532299, -0.550000131,   3.16556144
   5027,   25.8841553, -0.550000131,   2.83779788
   5028,   26.5420589, -0.550000131,   2.94729018
   5029,   24.1252441, -1.43051153e-07,  -0.63568604
   5030,   1.53322041, -1.43051153e-07,   2.13634729
   5031,   1.61160481, -1.43051153e-07,   2.71459413
   5032,   1.59160483, -1.43051153e-07,     3.805933
   5033,   1.67317796, -1.43051153e-07,   4.78305197
   5034,   1.58176529, -1.43051153e-07,   5.83872652
   5035,   2.97144723, -1.43051153e-07,   5.68265629
   5036,   2.64687014, -1.43051153e-07,   4.56492901
   5037,   2.65984368, -1.43051153e-07,   3.91479015
   5038,  0.618446529, -1.43051153e-07,   1.01297438
   5039,  0.573070824, -1.43051153e-07,   2.02990246
   5040,  0.493135035, -1.43051153e-07,   2.68910813
   5041,  0.373334646, -1.43051153e-07,   3.85958004
   5042,  0.733100653, -1.43051153e-07,   4.88439846
   5043, -0.466453254, -1.43051153e-07,   3.61583281
   5044, -0.241793469, -1.43051153e-07,   4.70594215
   5045,   3.91159296, -1.43051153e-07,   5.63621378
   5046,   3.87119627, -1.43051153e-07,   4.86954355
   5047,    4.9583292, -1.43051153e-07,   5.96255016
   5048,   6.08658552, -1.43051153e-07,   6.98315096
   5049,   19.5087242, -1.43051153e-07,   6.88080978
   5050,   20.4592285, -1.43051153e-07,   5.65625668
   5051,   21.5597668, -1.43051153e-07,   5.93120432
   5052,   21.6088905, -1.43051153e-07,   4.55805874
   5053,   22.8740616, -1.43051153e-07,   5.81802511
   5054,   22.6083355, -1.43051153e-07,   4.80770254
   5055,   23.0221329, -1.43051153e-07,   3.67325521
   5056,   23.8848248, -1.43051153e-07,    5.5898962
   5057,   23.6007481, -1.43051153e-07,   4.82530975
   5058,   23.6084442, -1.43051153e-07,   3.81018949
   5059,   23.7110634, -1.43051153e-07,   2.60497975
   5060,   23.7952423, -1.43051153e-07,   1.67340219
   5061,   23.8667736, -1.43051153e-07,    0.7647385
   5062,   23.4147282, -1.43051153e-07, -0.627828121
   5063,   23.4187622, -1.43051153e-07,  -1.38126147
   5064,   24.4466953, -1.43051153e-07,  0.763258636
   5065,   24.7878304, -1.43051153e-07,   1.93648517
   5066,   24.5070534, -1.43051153e-07,   2.77824092
   5067,   24.5568123, -1.43051153e-07,   4.60378551
   5068,   25.8161507, -1.43051153e-07,   4.82684946
   5069,   25.7313614, -1.43051153e-07,   3.72213721
   5070,   25.5791054, -1.43051153e-07,   2.85871649
   5071,   25.4641609, -1.43051153e-07,   1.93335426
   5072,   25.5017052, -1.43051153e-07,  0.593173623
   5073,   25.4850101, -1.43051153e-07, -0.340552807
   5074,   26.7582569, -1.43051153e-07,   4.60959291
   5075,   26.6327972, -1.43051153e-07,     3.736624
   5076,   26.7264557, -1.43051153e-07,   2.68017602
   5077,   26.4712925, -1.43051153e-07,   1.44954395
   5078,   26.4077549, -1.43051153e-07,  0.765896261
   5079,   27.8401108, -1.43051153e-07,   4.83056879
   5080,   27.6101971, -1.43051153e-07,    3.9531858
   5081,   27.6375809, -1.43051153e-07,   2.92739224
   5082,    27.888586, -1.43051153e-07,   1.93744719
   5083,   28.9607887, -1.43051153e-07,   3.61518145
   5084,   28.6238842, -1.43051153e-07,   2.58006024
   5085,   29.5940208, -1.43051153e-07,   3.97807026
   5086,   23.2973976, -1.43051153e-07,  0.194152921
   5087,   1.86105704, -1.43051153e-07,  0.882555842
   5088,   2.04425025, -1.43051153e-07,  0.570465028
   5089,   23.0021019, -1.43051153e-07,  -1.56110418
   5090, -0.273747027, -1.43051153e-07,   3.09905767
   5091,   25.0683746, -1.43051153e-07, -0.554491162
   5092,   22.5922356, -1.43051153e-07,  -1.72610772
   5093,   22.6797771, -1.43051153e-07, -0.859469473
   5094,   22.6322556, -1.43051153e-07,  -1.29779053
   5095,   22.7320347, -1.43051153e-07, -0.426647544
   5096,   22.8175888, -1.43051153e-07, 0.0189242288
   5097,   23.7636909, -1.43051153e-07,  0.204439968
   5098,   24.2332649, -1.43051153e-07, -0.981791854
   5099,    24.647995, -1.43051153e-07, -0.769629598
   5100,   25.8957806, -1.43051153e-07, -0.125614032
   5101,   23.8331795, -1.43051153e-07,  -1.19384265
   5102,   26.2910213, -1.43051153e-07, 0.0982466862
   5103,   5.60751295, -1.43051153e-07,   6.79769373
   5104,   21.5753193, -1.43051153e-07,   6.32871485
   5105,   27.3552666, -1.43051153e-07,   4.94693851
   5106,    20.500515, -1.43051153e-07,    6.4095974
   5107,   19.9601402, -1.43051153e-07,   6.68030596
   5108,   28.3206196, -1.43051153e-07,    4.7223196
   5109,   29.7562637, -1.43051153e-07,   4.42184114
   5110,    22.517374, -1.43051153e-07,   6.16519642
   5111,   25.9210243, -1.43051153e-07,   5.29775429
   5112,   30.6881294, -1.43051153e-07,   4.26507664
   5113,   19.1824417, -1.43051153e-07,   7.03258705
   5114,    31.132103, -1.43051153e-07,   4.14780188
   5115,   22.0516548, -1.43051153e-07,   6.21684551
   5116,   25.4578953, -1.43051153e-07,   5.41605949
   5117,   29.2812347, -1.43051153e-07,   4.51340914
   5118,   30.2279835, -1.43051153e-07,   4.34645844
   5119,   21.0882397, -1.43051153e-07,   6.37170839
   5120,   26.3900757, -1.43051153e-07,   5.17813778
   5121,   28.8002033, -1.43051153e-07,   4.61836958
   5122,   23.3987312, -1.43051153e-07,   5.90278482
   5123,   24.9795837, -1.43051153e-07,   5.51013803
   5124, -0.847497582, -1.43051153e-07,   5.07581663
   5125,  0.659352183, -1.43051153e-07,   5.40002632
   5126,  0.143347651, -1.43051153e-07,   5.30089998
   5127,   4.55342007, -1.43051153e-07,    6.2948451
   5128,   5.11697626, -1.43051153e-07,   6.58711052
   5129,   3.96246481, -1.43051153e-07,    6.2179718
   5130,   3.46443081, -1.43051153e-07,   6.15925312
   5131,  -0.35714075, -1.43051153e-07,   5.19151402
   5132,   21.9790115, -1.43051153e-07,   4.15315104
   5133,   22.9712601, -1.43051153e-07,   2.24650574
   5134,   2.40117002, -1.43051153e-07,   2.85389566
   5135,   2.12843156, -1.43051153e-07,   2.50382233
   5136,    22.433321, -1.43051153e-07,   3.72838426
   5137,   4.61062288, -1.43051153e-07,   5.60160589
   5138,   4.22469139, -1.43051153e-07,   5.27134848
   5139,   3.54513288, -1.43051153e-07,   4.45882988
   5140,   22.7634754, -1.43051153e-07,   2.69189477
   5141,   20.8639278, -1.43051153e-07,   5.33508873
   5142,   22.5804501, -1.43051153e-07,   3.16152048
   5143,   20.1009445, -1.43051153e-07,   6.00921822
   5144,   23.1898918, -1.43051153e-07,   1.81165373
   5145,   1.86419344, -1.43051153e-07,   2.26978016
   5146,   5.38035631, -1.43051153e-07,   6.27278662
   5147,  0.231988147, -1.43051153e-07,   1.01233041
   5148, -0.0803270042, -1.43051153e-07,    2.1110661
   5149,  0.198287398, -1.43051153e-07,   1.60069323
   5150, -0.253155947, -1.43051153e-07,   2.56563187
   5151, -0.724629402, -1.43051153e-07,   4.58641863
   5152,  -0.60391438, -1.43051153e-07,   4.09985781
   5153,   26.6690464, -1.43051153e-07,  0.339344949
   5154,   30.5374489, -1.43051153e-07,   3.49678516
   5155,   29.7118759, -1.43051153e-07,    2.9751308
   5156,   28.1723175, -1.43051153e-07,   1.58884037
   5157,   30.8529186, -1.43051153e-07,   3.81104112
   5158,   27.0407352, -1.43051153e-07,  0.625197709
   5159,    29.302721, -1.43051153e-07,   2.62163353
   5160,   27.7953262, -1.43051153e-07,    1.2604537
   5161,   27.4155235, -1.43051153e-07,  0.936209857
   5162,   28.9204578, -1.43051153e-07,   2.26410246
   5163,    30.147213, -1.43051153e-07,   3.24009299
   5164,  0.391124099, -1.43051153e-07,  0.521130741
   5165,   1.50719607, -1.43051153e-07,  0.527178824
   5166,    23.075386, -1.43051153e-07, -0.348077357
   5167,   23.0377541, -1.43051153e-07,   3.23793101
   5168,   1.30363238, -1.43051153e-07,   2.57176495
   5169,  0.727429152, -1.43051153e-07,   1.35140073
   5170,   24.0834217, -1.43051153e-07,  0.504376352
   5171,   22.9693604, -1.43051153e-07,   6.09422207
   5172,   23.1071148, -1.43051153e-07,   5.57882738
   5173,   1.52330375, -1.43051153e-07,  0.937852025
   5174,   22.7149544, -1.43051153e-07,    4.2214632
   5175,   24.9316597, -1.43051153e-07, -0.197619423
   5176,   3.57356906, -1.43051153e-07,   5.10020447
   5177,   22.0041485, -1.43051153e-07,   5.66337013
   5178,   28.1922398, -1.43051153e-07,   4.28025532
   5179,   23.3991966, -1.43051153e-07,  -1.02893496
   5180,   19.6868954, -1.43051153e-07,   6.30737638
   5181,   23.0152683, -1.43051153e-07,  -1.16692185
   5182,   23.0441628, -1.43051153e-07, -0.748868704
   5183,    21.161768, -1.43051153e-07,   5.77448988
   5184,   23.7754688, -1.43051153e-07, -0.869778216
   5185, 0.0568119399, -1.43051153e-07,   2.60198903
   5186,   25.3969631, -1.43051153e-07,   4.97726297
   5187,   24.4775772, -1.43051153e-07,   5.57102346
   5188,    30.492054, -1.43051153e-07,   3.93267107
   5189,   28.6587219, -1.43051153e-07,   4.18429756
   5190,   29.1328335, -1.43051153e-07,   4.07202625
   5191,   24.9553642, -1.43051153e-07,   5.04976225
   5192,   23.5607948, -1.43051153e-07,   2.03282619
   5193,   1.27532399, -1.43051153e-07,   5.48969221
   5194,   4.37699366, -1.43051153e-07,   5.83159542
   5195,  0.250044346, -1.43051153e-07,   4.80381775
   5196,   25.7065048, -1.43051153e-07,  0.254533648
   5197,   25.3257713, -1.43051153e-07,  0.019525731
   5198,   2.66996527, -1.43051153e-07,   3.24395466
   5199,   1.70060194, -1.43051153e-07,   1.69446886
   5200,   21.2506943, -1.43051153e-07,    4.9583869
   5201,   23.4111671, -1.43051153e-07,    1.3981781
   5202,   26.7631836, -1.43051153e-07,   1.03705788
   5203,   29.4501724, -1.43051153e-07,   3.41446018
   5204,   28.2556248, -1.43051153e-07,   2.25350356
   5205, 0.0967634171, -1.43051153e-07,   3.38350511
   5206,  0.937330782, -1.43051153e-07,  0.616338372
   5207,   23.1634979, -1.43051153e-07,    2.8269453
   5208,   3.42436743, -1.43051153e-07,   5.70182085
   5209,   1.63471127, -1.43051153e-07,   1.31070507
   5210,   2.39441514, -1.43051153e-07,    3.5407052
   5211,   1.39068282, -1.43051153e-07,   1.70224297
   5212,   24.5059528, -1.43051153e-07,   5.07077026
   5213,   1.21071804, -1.43051153e-07,     4.931674
   5214,    24.029377, -1.43051153e-07,   1.35207748
   5215,   23.9744873, -1.43051153e-07, 0.0521450378
   5216,  0.336743742, -1.43051153e-07,   4.30489874
   5217,   23.4397717, -1.43051153e-07,   3.30917645
   5218,   24.9611855, -1.43051153e-07,   4.57087564
   5219,   25.1514568, -1.43051153e-07,  0.353050768
   5220,   1.96044457, -1.43051153e-07,   5.29448271
   5221,    1.1917125, -1.43051153e-07,   2.00354099
   5222,   24.5256042, -1.43051153e-07, -0.419808269
   5223,    23.392374, -1.43051153e-07,   5.24716187
   5224,   22.3165092, -1.43051153e-07,   5.17104006
   5225,    23.255003, -1.43051153e-07,   4.14564657
   5226,   3.25738883, -1.43051153e-07,   4.68284464
   5227,   21.5967178, -1.43051153e-07,   5.30640268
   5228,   24.1638565, -1.43051153e-07,    1.9466933
   5229,   20.6984177, -1.43051153e-07,   5.93011713
   5230,  0.263619453, -1.43051153e-07,   2.34499145
   5231, -0.0438715778, -1.43051153e-07,   3.77167392
   5232,   24.2450314, -1.43051153e-07,   2.50207138
   5233,  0.923492968, -1.43051153e-07,   1.71310186
   5234,   24.3949013, -1.43051153e-07, -0.0883797109
   5235,  0.886067092, -1.43051153e-07,   2.47785735
   5236,    24.976656, -1.43051153e-07,  0.673760891
   5237,   2.36284995, -1.43051153e-07,   4.20253086
   5238,   24.1580582, -1.43051153e-07,   4.57462215
   5239,  0.846562624, -1.43051153e-07,   4.30709362
   5240,   2.52587771, -1.43051153e-07,   5.53017759
   5241,   22.9728241, -1.43051153e-07,   5.01790857
   5242,   22.7189121, -1.43051153e-07,   5.37152004
   5243,   23.9216442, -1.43051153e-07,   3.11773872
   5244,    21.955616, -1.43051153e-07,   4.88656807
   5245,   23.6951408, -1.43051153e-07, -0.614511073
   5246,   2.32791829, -1.43051153e-07,    4.8825922
   5247,  0.148210913, -1.43051153e-07,   2.87239671
   5248,   25.6188431, -1.43051153e-07,   4.27587223
   5249,   29.0054359, -1.43051153e-07,   2.93936682
   5250,   2.69134021, -1.43051153e-07,   5.17697144
   5251,   1.11865258, -1.43051153e-07,   1.08552611
   5252,   24.5024357, -1.43051153e-07,   2.23224664
   5253,   25.7796021, -1.43051153e-07,  0.871426105
   5254,   24.5363026, -1.43051153e-07,   4.14344645
   5255,   22.8342533, -1.43051153e-07,   4.54550838
   5256,   28.6707935, -1.43051153e-07,   3.20276141
   5257,   1.20335662, -1.43051153e-07,   2.96364713
   5258,   25.3615513, -1.43051153e-07,    1.1909616
   5259,   24.2826099, -1.43051153e-07,   3.67715335
   5260,   24.2245178, -1.43051153e-07,   4.24515343
   5261,   2.95127869, -1.43051153e-07,   4.29615068
   5262,   1.47749603, -1.43051153e-07,   4.35899496
   5263,   2.03911781, -1.43051153e-07,   4.50665331
   5264,   26.1827755, -1.43051153e-07,   4.22958565
   5265,   24.8008022, -1.43051153e-07,   2.56156778
   5266,   25.0289154, -1.43051153e-07,     4.023664
   5267,   23.7435551, -1.43051153e-07,   4.40545034
   5268,   24.7801533, -1.43051153e-07,  0.128859505
   5269,    26.104353, -1.43051153e-07,    1.1663394
   5270,   22.3029251, -1.43051153e-07,   4.50783205
   5271,   1.63803387, -1.43051153e-07,   3.26714826
   5272,   1.99831462, -1.43051153e-07,   5.83154392
   5273,   27.2414188, -1.43051153e-07,   4.50455809
   5274,   24.4175835, -1.43051153e-07,   1.64063168
   5275,   3.23891258, -1.43051153e-07,    4.0534811
   5276,   1.40306258, -1.43051153e-07,   3.11532617
   5277,    23.958622, -1.43051153e-07,   4.03320789
   5278,   24.6580677, -1.43051153e-07,   1.32773936
   5279,   24.2495975, -1.43051153e-07,   1.05525875
   5280,   25.0763512, -1.43051153e-07,   1.60019076
   5281,   23.1694889, -1.43051153e-07,   4.63066578
   5282,   24.2899513, -1.43051153e-07,   3.21567059
   5283,   26.2782211, -1.43051153e-07,   4.71075487
   5284,    1.2696166, -1.43051153e-07,   4.00589895
   5285,   1.80208898, -1.43051153e-07,   4.13067055
   5286,   26.1864052, -1.43051153e-07,    3.7544136
   5287,    25.773777, -1.43051153e-07,   1.55035472
   5288,   26.8714886, -1.43051153e-07,    5.0633812
   5289,    28.306776, -1.43051153e-07,   2.90277863
   5290,    27.724577, -1.43051153e-07,   4.39270353
   5291,   23.3581409, -1.43051153e-07,   3.59542513
   5292,   26.2184238, -1.43051153e-07,   3.30607557
   5293,   0.89863807, -1.43051153e-07,   3.12562418
   5294,    26.166399, -1.43051153e-07,   1.85596251
   5295,   27.1418266, -1.43051153e-07,   4.08426046
   5296,   27.9752274, -1.43051153e-07,   3.31700325
   5297,   24.7422428, -1.43051153e-07,   3.54759932
   5298,   1.44779372, -1.43051153e-07,   3.54948568
   5299,   27.0579224, -1.43051153e-07,   3.70108747
   5300,   25.8258114, -1.43051153e-07,   3.26662135
   5301,   26.5728436, -1.43051153e-07,   2.10017061
   5302,    26.675333, -1.43051153e-07,   4.17070484
   5303,   28.0691833, -1.43051153e-07,   3.83980751
   5304,   23.6330547, -1.43051153e-07,   1.04391527
   5305,   26.6745014, -1.43051153e-07,   3.27282476
   5306,   25.1209908, -1.43051153e-07,   2.26311994
   5307,   25.3950138, -1.43051153e-07,   2.59267735
   5308,   27.4924278, -1.43051153e-07,   3.54718399
   5309,   26.2389717, -1.43051153e-07,   2.89544511
   5310,   26.3490715, -1.43051153e-07,   2.48349524
   5311,   27.2311001, -1.43051153e-07,   1.99484098
   5312,   28.5167141, -1.43051153e-07,   3.77284145
   5313,   27.0056171, -1.43051153e-07,   3.40046859
   5314,   25.0611954, -1.43051153e-07,   2.96094251
   5315,   25.8579941, -1.43051153e-07,   2.32047486
   5316,    26.961668, -1.43051153e-07,   2.34600782
   5317,   25.0412884, -1.43051153e-07,   3.37979341
   5318,   27.2919788, -1.43051153e-07,   3.19845319
   5319,   27.5975647, -1.43051153e-07,   2.28455305
   5320, -0.142953783, -1.43051153e-07,   4.22268391
   5321,   1.14828503, -1.43051153e-07,   3.53886366
   5322,   27.5121708, -1.43051153e-07,   1.62507331
   5323,   18.4002514, -1.43051153e-07,   7.22080851
   5324,   25.3246918, -1.43051153e-07,   3.57554698
   5325,   24.0424862, -1.43051153e-07,   5.01615763
   5326,   28.5457821, -1.43051153e-07,   1.92176771
   5327,   18.6010094, -1.43051153e-07,   7.04465008
   5328,   18.8803864, -1.43051153e-07,   6.80665302
   5329,   15.6620646, -1.43051153e-07,   8.06082058
   5330,   15.2714767, -1.43051153e-07,    8.1505146
   5331,   19.2627869, -1.43051153e-07,   6.56519938
   5332,   2.48516631, -1.43051153e-07,   5.95085239
   5333,   2.96787643, -1.43051153e-07,   6.07691479
   5334,   23.5204639, -1.43051153e-07,  0.425696999
   5335,   23.0449047, -1.43051153e-07, -0.0425841063
   5336,   6.56008482, -1.43051153e-07,   7.15946865
   5337,   7.01143694, -1.43051153e-07,    7.3261199
   5338,   7.37513208, -1.43051153e-07,   7.45604753
   5339,   8.44535828, -1.43051153e-07,     7.718256
   5340,   8.83324051, -1.43051153e-07,   7.82355452
   5341,   9.31171417, -1.43051153e-07,   7.95353556
   5342,   9.80315208, -1.43051153e-07,   8.07924175
   5343,   7.56861115, -1.43051153e-07,   7.39303732
   5344,    7.1846056, -1.43051153e-07,   7.20100355
   5345,   6.73922968, -1.43051153e-07,   6.99532938
   5346,   6.28226662, -1.43051153e-07,   6.77325583
   5347,    5.8286376, -1.43051153e-07,   6.53477907
   5348,   2.94820595, -1.43051153e-07,   3.64766145
   5349,   14.7886505, -1.43051153e-07,   8.25772381
   5350,   14.2923622, -1.43051153e-07,   8.35989666
   5351,   13.7925739, -1.43051153e-07,   8.45063782
   5352,    13.291769, -1.43051153e-07,   8.52550697
   5353,   12.7994385, -1.43051153e-07,   8.56882191
   5354,   12.3056669, -1.43051153e-07,   8.53617191
   5355,   11.8025436, -1.43051153e-07,   8.47227287
   5356,   11.2991638, -1.43051153e-07,    8.3916502
   5357,   10.7980366, -1.43051153e-07,   8.29915333
   5358,   10.2989912, -1.43051153e-07,   8.19468975
   5359,   30.0689507, -1.43051153e-07,   3.95924687
   5360,   26.0553913, -1.43051153e-07,  0.497796923
   5361,   27.1330395, -1.43051153e-07,   1.32338858
   5362,   1.26413178, -1.43051153e-07,   1.44875324
   5363,   22.5231972, -1.43051153e-07,    5.7543931
   5364,   23.3437386, -1.43051153e-07,   2.42287493
   5365,   30.3686695, -1.43051153e-07,   3.66241074
   5366,   30.0090313, -1.43051153e-07,   3.56528878
   5367,   23.9407063, -1.43051153e-07, -0.296431571
   5368,   1.87040734, -1.43051153e-07,   2.91122866
   5369,   2.13400865, -1.43051153e-07,   3.19384027
   5370,   26.8462124, -1.43051153e-07,   1.71282887
   5371,   27.9533615, -1.43051153e-07,   2.59374714
   5372,   2.98458672, -1.43051153e-07,   5.38231134
   5373,   23.5522556, -1.43051153e-07,   2.96696043
   5374,   23.9191456, -1.43051153e-07,   2.26372218
   5375,   25.3136253, -1.43051153e-07,    4.6083765
   5376,   23.4918804, -1.43051153e-07, -0.178284481
   5377,  0.539980173, -1.43051153e-07,   3.10729074
   5378,   2.96572089, -1.43051153e-07,   4.90665388
   5379,   24.2693043, -1.43051153e-07,  0.229540125
   5380,   24.6178265, -1.43051153e-07,  0.451843262
   5381,   0.26293841, -1.43051153e-07,   3.11042261
   5382,   3.25413942, -1.43051153e-07,   5.26346302
   5383,   28.4009228, -1.43051153e-07,    3.4323473
   5384,   1.87250185, -1.43051153e-07,   3.51987195
   5385,   2.11122632, -1.43051153e-07,   3.84368801
   5386,   24.8455276, -1.43051153e-07,  0.999170244
   5387,  0.425914705, -1.43051153e-07,   3.46896696
   5388,  0.772086918, -1.43051153e-07,   3.79609752
   5389,   25.2869797, -1.43051153e-07,  0.815428317
   5390,   23.8146973, -1.43051153e-07,   3.47618914
   5391,   27.3088665, -1.43051153e-07,   2.61739159
   5392,   24.0365353, -1.43051153e-07,   2.78512692
   5393,   27.0157623, -1.43051153e-07,   2.92950964
   5394,  0.684844255, -1.43051153e-07,   3.48194599
   5395,   1.18125343, -1.43051153e-07,   4.52704048
   5396,   24.2810211, -1.43051153e-07,   2.92366433
   5397,   24.6511669, -1.43051153e-07,   3.12850356
   5398,   25.4532299, -1.43051153e-07,   3.16556144
   5399,   25.8841553, -1.43051153e-07,   2.83779788
   5400,   26.5420589, -1.43051153e-07,   2.94729018
   5401,   24.1252441,  0.549999833,  -0.63568604
   5402,   1.53322041,  0.549999833,   2.13634729
   5403,   1.61160481,  0.549999833,   2.71459413
   5404,   1.59160483,  0.549999833,     3.805933
   5405,   1.67317796,  0.549999833,   4.78305197
   5406,   1.58176529,  0.549999833,   5.83872652
   5407,   2.97144723,  0.549999833,   5.68265629
   5408,   2.64687014,  0.549999833,   4.56492901
   5409,   2.65984368,  0.549999833,   3.91479015
   5410,  0.618446529,  0.549999833,   1.01297438
   5411,  0.573070824,  0.549999833,   2.02990246
   5412,  0.493135035,  0.549999833,   2.68910813
   5413,  0.373334646,  0.549999833,   3.85958004
   5414,  0.733100653,  0.549999833,   4.88439846
   5415, -0.466453254,  0.549999833,   3.61583281
   5416, -0.241793469,  0.549999833,   4.70594215
   5417,   3.91159296,  0.549999833,   5.63621378
   5418,   3.87119627,  0.549999833,   4.86954355
   5419,    4.9583292,  0.549999833,   5.96255016
   5420,   6.08658552,  0.549999833,   6.98315096
   5421,   19.5087242,  0.549999833,   6.88080978
   5422,   20.4592285,  0.549999833,   5.65625668
   5423,   21.5597668,  0.549999833,   5.93120432
   5424,   21.6088905,  0.549999833,   4.55805874
   5425,   22.8740616,  0.549999833,   5.81802511
   5426,   22.6083355,  0.549999833,   4.80770254
   5427,   23.0221329,  0.549999833,   3.67325521
   5428,   23.8848248,  0.549999833,    5.5898962
   5429,   23.6007481,  0.549999833,   4.82530975
   5430,   23.6084442,  0.549999833,   3.81018949
   5431,   23.7110634,  0.549999833,   2.60497975
   5432,   23.7952423,  0.549999833,   1.67340219
   5433,   23.8667736,  0.549999833,    0.7647385
   5434,   23.4147282,  0.549999833, -0.627828121
   5435,   23.4187622,  0.549999833,  -1.38126147
   5436,   24.4466953,  0.549999833,  0.763258636
   5437,   24.7878304,  0.549999833,   1.93648517
   5438,   24.5070534,  0.549999833,   2.77824092
   5439,   24.5568123,  0.549999833,   4.60378551
   5440,   25.8161507,  0.549999833,   4.82684946
   5441,   25.7313614,  0.549999833,   3.72213721
   5442,   25.5791054,  0.549999833,   2.85871649
   5443,   25.4641609,  0.549999833,   1.93335426
   5444,   25.5017052,  0.549999833,  0.593173623
   5445,   25.4850101,  0.549999833, -0.340552807
   5446,   26.7582569,  0.549999833,   4.60959291
   5447,   26.6327972,  0.549999833,     3.736624
   5448,   26.7264557,  0.549999833,   2.68017602
   5449,   26.4712925,  0.549999833,   1.44954395
   5450,   26.4077549,  0.549999833,  0.765896261
   5451,   27.8401108,  0.549999833,   4.83056879
   5452,   27.6101971,  0.549999833,    3.9531858
   5453,   27.6375809,  0.549999833,   2.92739224
   5454,    27.888586,  0.549999833,   1.93744719
   5455,   28.9607887,  0.549999833,   3.61518145
   5456,   28.6238842,  0.549999833,   2.58006024
   5457,   29.5940208,  0.549999833,   3.97807026
   5458,   23.2973976,  0.549999833,  0.194152921
   5459,   1.86105704,  0.549999833,  0.882555842
   5460,   2.04425025,  0.549999833,  0.570465028
   5461,   23.0021019,  0.549999833,  -1.56110418
   5462, -0.273747027,  0.549999833,   3.09905767
   5463,   25.0683746,  0.549999833, -0.554491162
   5464,   22.5922356,  0.549999833,  -1.72610772
   5465,   22.6797771,  0.549999833, -0.859469473
   5466,   22.6322556,  0.549999833,  -1.29779053
   5467,   22.7320347,  0.549999833, -0.426647544
   5468,   22.8175888,  0.549999833, 0.0189242288
   5469,   23.7636909,  0.549999833,  0.204439968
   5470,   24.2332649,  0.549999833, -0.981791854
   5471,    24.647995,  0.549999833, -0.769629598
   5472,   25.8957806,  0.549999833, -0.125614032
   5473,   23.8331795,  0.549999833,  -1.19384265
   5474,   26.2910213,  0.549999833, 0.0982466862
   5475,   5.60751295,  0.549999833,   6.79769373
   5476,   21.5753193,  0.549999833,   6.32871485
   5477,   27.3552666,  0.549999833,   4.94693851
   5478,    20.500515,  0.549999833,    6.4095974
   5479,   19.9601402,  0.549999833,   6.68030596
   5480,   28.3206196,  0.549999833,    4.7223196
   5481,   29.7562637,  0.549999833,   4.42184114
   5482,    22.517374,  0.549999833,   6.16519642
   5483,   25.9210243,  0.549999833,   5.29775429
   5484,   30.6881294,  0.549999833,   4.26507664
   5485,   19.1824417,  0.549999833,   7.03258705
   5486,    31.132103,  0.549999833,   4.14780188
   5487,   22.0516548,  0.549999833,   6.21684551
   5488,   25.4578953,  0.549999833,   5.41605949
   5489,   29.2812347,  0.549999833,   4.51340914
   5490,   30.2279835,  0.549999833,   4.34645844
   5491,   21.0882397,  0.549999833,   6.37170839
   5492,   26.3900757,  0.549999833,   5.17813778
   5493,   28.8002033,  0.549999833,   4.61836958
   5494,   23.3987312,  0.549999833,   5.90278482
   5495,   24.9795837,  0.549999833,   5.51013803
   5496, -0.847497582,  0.549999833,   5.07581663
   5497,  0.659352183,  0.549999833,   5.40002632
   5498,  0.143347651,  0.549999833,   5.30089998
   5499,   4.55342007,  0.549999833,    6.2948451
   5500,   5.11697626,  0.549999833,   6.58711052
   5501,   3.96246481,  0.549999833,    6.2179718
   5502,   3.46443081,  0.549999833,   6.15925312
   5503,  -0.35714075,  0.549999833,   5.19151402
   5504,   21.9790115,  0.549999833,   4.15315104
   5505,   22.9712601,  0.549999833,   2.24650574
   5506,   2.40117002,  0.549999833,   2.85389566
   5507,   2.12843156,  0.549999833,   2.50382233
   5508,    22.433321,  0.549999833,   3.72838426
   5509,   4.61062288,  0.549999833,   5.60160589
   5510,   4.22469139,  0.549999833,   5.27134848
   5511,   3.54513288,  0.549999833,   4.45882988
   5512,   22.7634754,  0.549999833,   2.69189477
   5513,   20.8639278,  0.549999833,   5.33508873
   5514,   22.5804501,  0.549999833,   3.16152048
   5515,   20.1009445,  0.549999833,   6.00921822
   5516,   23.1898918,  0.549999833,   1.81165373
   5517,   1.86419344,  0.549999833,   2.26978016
   5518,   5.38035631,  0.549999833,   6.27278662
   5519,  0.231988147,  0.549999833,   1.01233041
   5520, -0.0803270042,  0.549999833,    2.1110661
   5521,  0.198287398,  0.549999833,   1.60069323
   5522, -0.253155947,  0.549999833,   2.56563187
   5523, -0.724629402,  0.549999833,   4.58641863
   5524,  -0.60391438,  0.549999833,   4.09985781
   5525,   26.6690464,  0.549999833,  0.339344949
   5526,   30.5374489,  0.549999833,   3.49678516
   5527,   29.7118759,  0.549999833,    2.9751308
   5528,   28.1723175,  0.549999833,   1.58884037
   5529,   30.8529186,  0.549999833,   3.81104112
   5530,   27.0407352,  0.549999833,  0.625197709
   5531,    29.302721,  0.549999833,   2.62163353
   5532,   27.7953262,  0.549999833,    1.2604537
   5533,   27.4155235,  0.549999833,  0.936209857
   5534,   28.9204578,  0.549999833,   2.26410246
   5535,    30.147213,  0.549999833,   3.24009299
   5536,  0.391124099,  0.549999833,  0.521130741
   5537,   1.50719607,  0.549999833,  0.527178824
   5538,    23.075386,  0.549999833, -0.348077357
   5539,   23.0377541,  0.549999833,   3.23793101
   5540,   1.30363238,  0.549999833,   2.57176495
   5541,  0.727429152,  0.549999833,   1.35140073
   5542,   24.0834217,  0.549999833,  0.504376352
   5543,   22.9693604,  0.549999833,   6.09422207
   5544,   23.1071148,  0.549999833,   5.57882738
   5545,   1.52330375,  0.549999833,  0.937852025
   5546,   22.7149544,  0.549999833,    4.2214632
   5547,   24.9316597,  0.549999833, -0.197619423
   5548,   3.57356906,  0.549999833,   5.10020447
   5549,   22.0041485,  0.549999833,   5.66337013
   5550,   28.1922398,  0.549999833,   4.28025532
   5551,   23.3991966,  0.549999833,  -1.02893496
   5552,   19.6868954,  0.549999833,   6.30737638
   5553,   23.0152683,  0.549999833,  -1.16692185
   5554,   23.0441628,  0.549999833, -0.748868704
   5555,    21.161768,  0.549999833,   5.77448988
   5556,   23.7754688,  0.549999833, -0.869778216
   5557, 0.0568119399,  0.549999833,   2.60198903
   5558,   25.3969631,  0.549999833,   4.97726297
   5559,   24.4775772,  0.549999833,   5.57102346
   5560,    30.492054,  0.549999833,   3.93267107
   5561,   28.6587219,  0.549999833,   4.18429756
   5562,   29.1328335,  0.549999833,   4.07202625
   5563,   24.9553642,  0.549999833,   5.04976225
   5564,   23.5607948,  0.549999833,   2.03282619
   5565,   1.27532399,  0.549999833,   5.48969221
   5566,   4.37699366,  0.549999833,   5.83159542
   5567,  0.250044346,  0.549999833,   4.80381775
   5568,   25.7065048,  0.549999833,  0.254533648
   5569,   25.3257713,  0.549999833,  0.019525731
   5570,   2.66996527,  0.549999833,   3.24395466
   5571,   1.70060194,  0.549999833,   1.69446886
   5572,   21.2506943,  0.549999833,    4.9583869
   5573,   23.4111671,  0.549999833,    1.3981781
   5574,   26.7631836,  0.549999833,   1.03705788
   5575,   29.4501724,  0.549999833,   3.41446018
   5576,   28.2556248,  0.549999833,   2.25350356
   5577, 0.0967634171,  0.549999833,   3.38350511
   5578,  0.937330782,  0.549999833,  0.616338372
   5579,   23.1634979,  0.549999833,    2.8269453
   5580,   3.42436743,  0.549999833,   5.70182085
   5581,   1.63471127,  0.549999833,   1.31070507
   5582,   2.39441514,  0.549999833,    3.5407052
   5583,   1.39068282,  0.549999833,   1.70224297
   5584,   24.5059528,  0.549999833,   5.07077026
   5585,   1.21071804,  0.549999833,     4.931674
   5586,    24.029377,  0.549999833,   1.35207748
   5587,   23.9744873,  0.549999833, 0.0521450378
   5588,  0.336743742,  0.549999833,   4.30489874
   5589,   23.4397717,  0.549999833,   3.30917645
   5590,   24.9611855,  0.549999833,   4.57087564
   5591,   25.1514568,  0.549999833,  0.353050768
   5592,   1.96044457,  0.549999833,   5.29448271
   5593,    1.1917125,  0.549999833,   2.00354099
   5594,   24.5256042,  0.549999833, -0.419808269
   5595,    23.392374,  0.549999833,   5.24716187
   5596,   22.3165092,  0.549999833,   5.17104006
   5597,    23.255003,  0.549999833,   4.14564657
   5598,   3.25738883,  0.549999833,   4.68284464
   5599,   21.5967178,  0.549999833,   5.30640268
   5600,   24.1638565,  0.549999833,    1.9466933
   5601,   20.6984177,  0.549999833,   5.93011713
   5602,  0.263619453,  0.549999833,   2.34499145
   5603, -0.0438715778,  0.549999833,   3.77167392
   5604,   24.2450314,  0.549999833,   2.50207138
   5605,  0.923492968,  0.549999833,   1.71310186
   5606,   24.3949013,  0.549999833, -0.0883797109
   5607,  0.886067092,  0.549999833,   2.47785735
   5608,    24.976656,  0.549999833,  0.673760891
   5609,   2.36284995,  0.549999833,   4.20253086
   5610,   24.1580582,  0.549999833,   4.57462215
   5611,  0.846562624,  0.549999833,   4.30709362
   5612,   2.52587771,  0.549999833,   5.53017759
   5613,   22.9728241,  0.549999833,   5.01790857
   5614,   22.7189121,  0.549999833,   5.37152004
   5615,   23.9216442,  0.549999833,   3.11773872
   5616,    21.955616,  0.549999833,   4.88656807
   5617,   23.6951408,  0.549999833, -0.614511073
   5618,   2.32791829,  0.549999833,    4.8825922
   5619,  0.148210913,  0.549999833,   2.87239671
   5620,   25.6188431,  0.549999833,   4.27587223
   5621,   29.0054359,  0.549999833,   2.93936682
   5622,   2.69134021,  0.549999833,   5.17697144
   5623,   1.11865258,  0.549999833,   1.08552611
   5624,   24.5024357,  0.549999833,   2.23224664
   5625,   25.7796021,  0.549999833,  0.871426105
   5626,   24.5363026,  0.549999833,   4.14344645
   5627,   22.8342533,  0.549999833,   4.54550838
   5628,   28.6707935,  0.549999833,   3.20276141
   5629,   1.20335662,  0.549999833,   2.96364713
   5630,   25.3615513,  0.549999833,    1.1909616
   5631,   24.2826099,  0.549999833,   3.67715335
   5632,   24.2245178,  0.549999833,   4.24515343
   5633,   2.95127869,  0.549999833,   4.29615068
   5634,   1.47749603,  0.549999833,   4.35899496
   5635,   2.03911781,  0.549999833,   4.50665331
   5636,   26.1827755,  0.549999833,   4.22958565
   5637,   24.8008022,  0.549999833,   2.56156778
   5638,   25.0289154,  0.549999833,     4.023664
   5639,   23.7435551,  0.549999833,   4.40545034
   5640,   24.7801533,  0.549999833,  0.128859505
   5641,    26.104353,  0.549999833,    1.1663394
   5642,   22.3029251,  0.549999833,   4.50783205
   5643,   1.63803387,  0.549999833,   3.26714826
   5644,   1.99831462,  0.549999833,   5.83154392
   5645,   27.2414188,  0.549999833,   4.50455809
   5646,   24.4175835,  0.549999833,   1.64063168
   5647,   3.23891258,  0.549999833,    4.0534811
   5648,   1.40306258,  0.549999833,   3.11532617
   5649,    23.958622,  0.549999833,   4.03320789
   5650,   24.6580677,  0.549999833,   1.32773936
   5651,   24.2495975,  0.549999833,   1.05525875
   5652,   25.0763512,  0.549999833,   1.60019076
   5653,   23.1694889,  0.549999833,   4.63066578
   5654,   24.2899513,  0.549999833,   3.21567059
   5655,   26.2782211,  0.549999833,   4.71075487
   5656,    1.2696166,  0.549999833,   4.00589895
   5657,   1.80208898,  0.549999833,   4.13067055
   5658,   26.1864052,  0.549999833,    3.7544136
   5659,    25.773777,  0.549999833,   1.55035472
   5660,   26.8714886,  0.549999833,    5.0633812
   5661,    28.306776,  0.549999833,   2.90277863
   5662,    27.724577,  0.549999833,   4.39270353
   5663,   23.3581409,  0.549999833,   3.59542513
   5664,   26.2184238,  0.549999833,   3.30607557
   5665,   0.89863807,  0.549999833,   3.12562418
   5666,    26.166399,  0.549999833,   1.85596251
   5667,   27.1418266,  0.549999833,   4.08426046
   5668,   27.9752274,  0.549999833,   3.31700325
   5669,   24.7422428,  0.549999833,   3.54759932
   5670,   1.44779372,  0.549999833,   3.54948568
   5671,   27.0579224,  0.549999833,   3.70108747
   5672,   25.8258114,  0.549999833,   3.26662135
   5673,   26.5728436,  0.549999833,   2.10017061
   5674,    26.675333,  0.549999833,   4.17070484
   5675,   28.0691833,  0.549999833,   3.83980751
   5676,   23.6330547,  0.549999833,   1.04391527
   5677,   26.6745014,  0.549999833,   3.27282476
   5678,   25.1209908,  0.549999833,   2.26311994
   5679,   25.3950138,  0.549999833,   2.59267735
   5680,   27.4924278,  0.549999833,   3.54718399
   5681,   26.2389717,  0.549999833,   2.89544511
   5682,   26.3490715,  0.549999833,   2.48349524
   5683,   27.2311001,  0.549999833,   1.99484098
   5684,   28.5167141,  0.549999833,   3.77284145
   5685,   27.0056171,  0.549999833,   3.40046859
   5686,   25.0611954,  0.549999833,   2.96094251
   5687,   25.8579941,  0.549999833,   2.32047486
   5688,    26.961668,  0.549999833,   2.34600782
   5689,   25.0412884,  0.549999833,   3.37979341
   5690,   27.2919788,  0.549999833,   3.19845319
   5691,   27.5975647,  0.549999833,   2.28455305
   5692, -0.142953783,  0.549999833,   4.22268391
   5693,   1.14828503,  0.549999833,   3.53886366
   5694,   27.5121708,  0.549999833,   1.62507331
   5695,   18.4002514,  0.549999833,   7.22080851
   5696,   25.3246918,  0.549999833,   3.57554698
   5697,   24.0424862,  0.549999833,   5.01615763
   5698,   28.5457821,  0.549999833,   1.92176771
   5699,   18.6010094,  0.549999833,   7.04465008
   5700,   18.8803864,  0.549999833,   6.80665302
   5701,   15.6620646,  0.549999833,   8.06082058
   5702,   15.2714767,  0.549999833,    8.1505146
   5703,   19.2627869,  0.549999833,   6.56519938
   5704,   2.48516631,  0.549999833,   5.95085239
   5705,   2.96787643,  0.549999833,   6.07691479
   5706,   23.5204639,  0.549999833,  0.425696999
   5707,   23.0449047,  0.549999833, -0.0425841063
   5708,   6.56008482,  0.549999833,   7.15946865
   5709,   7.01143694,  0.549999833,    7.3261199
   5710,   7.37513208,  0.549999833,   7.45604753
   5711,   8.44535828,  0.549999833,     7.718256
   5712,   8.83324051,  0.549999833,   7.82355452
   5713,   9.31171417,  0.549999833,   7.95353556
   5714,   9.80315208,  0.549999833,   8.07924175
   5715,   7.56861115,  0.549999833,   7.39303732
   5716,    7.1846056,  0.549999833,   7.20100355
   5717,   6.73922968,  0.549999833,   6.99532938
   5718,   6.28226662,  0.549999833,   6.77325583
   5719,    5.8286376,  0.549999833,   6.53477907
   5720,   2.94820595,  0.549999833,   3.64766145
   5721,   14.7886505,  0.549999833,   8.25772381
   5722,   14.2923622,  0.549999833,   8.35989666
   5723,   13.7925739,  0.549999833,   8.45063782
   5724,    13.291769,  0.549999833,   8.52550697
   5725,   12.7994385,  0.549999833,   8.56882191
   5726,   12.3056669,  0.549999833,   8.53617191
   5727,   11.8025436,  0.549999833,   8.47227287
   5728,   11.2991638,  0.549999833,    8.3916502
   5729,   10.7980366,  0.549999833,   8.29915333
   5730,   10.2989912,  0.549999833,   8.19468975
   5731,   30.0689507,  0.549999833,   3.95924687
   5732,   26.0553913,  0.549999833,  0.497796923
   5733,   27.1330395,  0.549999833,   1.32338858
   5734,   1.26413178,  0.549999833,   1.44875324
   5735,   22.5231972,  0.549999833,    5.7543931
   5736,   23.3437386,  0.549999833,   2.42287493
   5737,   30.3686695,  0.549999833,   3.66241074
   5738,   30.0090313,  0.549999833,   3.56528878
   5739,   23.9407063,  0.549999833, -0.296431571
   5740,   1.87040734,  0.549999833,   2.91122866
   5741,   2.13400865,  0.549999833,   3.19384027
   5742,   26.8462124,  0.549999833,   1.71282887
   5743,   27.9533615,  0.549999833,   2.59374714
   5744,   2.98458672,  0.549999833,   5.38231134
   5745,   23.5522556,  0.549999833,   2.96696043
   5746,   23.9191456,  0.549999833,   2.26372218
   5747,   25.3136253,  0.549999833,    4.6083765
   5748,   23.4918804,  0.549999833, -0.178284481
   5749,  0.539980173,  0.549999833,   3.10729074
   5750,   2.96572089,  0.549999833,   4.90665388
   5751,   24.2693043,  0.549999833,  0.229540125
   5752,   24.6178265,  0.549999833,  0.451843262
   5753,   0.26293841,  0.549999833,   3.11042261
   5754,   3.25413942,  0.549999833,   5.26346302
   5755,   28.4009228,  0.549999833,    3.4323473
   5756,   1.87250185,  0.549999833,   3.51987195
   5757,   2.11122632,  0.549999833,   3.84368801
   5758,   24.8455276,  0.549999833,  0.999170244
   5759,  0.425914705,  0.549999833,   3.46896696
   5760,  0.772086918,  0.549999833,   3.79609752
   5761,   25.2869797,  0.549999833,  0.815428317
   5762,   23.8146973,  0.549999833,   3.47618914
   5763,   27.3088665,  0.549999833,   2.61739159
   5764,   24.0365353,  0.549999833,   2.78512692
   5765,   27.0157623,  0.549999833,   2.92950964
   5766,  0.684844255,  0.549999833,   3.48194599
   5767,   1.18125343,  0.549999833,   4.52704048
   5768,   24.2810211,  0.549999833,   2.92366433
   5769,   24.6511669,  0.549999833,   3.12850356
   5770,   25.4532299,  0.549999833,   3.16556144
   5771,   25.8841553,  0.549999833,   2.83779788
   5772,   26.5420589,  0.549999833,   2.94729018
   5773,   24.1252441,   1.28923821,  -0.63568604
   5774,   1.53322041,   1.28365207,   2.13634729
   5775,   1.61160481,   1.27904844,   2.71459413
   5776,   1.59160483,   1.27048063,     3.805933
   5777,   1.67317796,   1.26273799,   4.78305197
   5778,   1.58097303,   1.25428343,   5.84057617
   5779,   2.97144723,   1.25473189,   5.68265629
   5780,   2.64687014,   1.26375461,   4.56492901
   5781,   2.65984368,   1.26885796,   3.91479015
   5782,  0.618446529,    1.2931428,   1.01297438
   5783,  0.573070824,   1.28517818,   2.02990246
   5784,  0.493135035,   1.28005171,   2.68910813
   5785,  0.373334646,   1.27093315,   3.85958004
   5786,  0.733100653,   1.26261568,   4.88439846
   5787, -0.467142016,   1.27340496,   3.61569023
   5788, -0.241793469,   1.26471877,   4.70594215
   5789,   3.91159272,   1.25442243,   5.63621378
   5790,   3.87192106,   1.26056099,   4.86883116
   5791,   4.95925903,   1.25126958,   5.96142626
   5792,   6.08602762,   1.24211061,   6.98462486
   5793,   19.5092163,   1.23338377,   6.88135672
   5794,    20.458025,   1.24259484,   5.65471649
   5795,   21.5597668,   1.23943758,   5.93120432
   5796,   21.6080818,   1.25030744,   4.55712748
   5797,   22.8740616,   1.23938441,   5.81802511
   5798,   22.6083355,   1.24752021,   4.80770254
   5799,   23.0221329,   1.25614452,   3.67325521
   5800,   23.8850784,   1.24039543,   5.59044838
   5801,   23.6007481,   1.24666953,   4.82530975
   5802,   23.6084442,   1.25464702,   3.81018949
   5803,   23.7110634,   1.26405096,   2.60497975
   5804,   23.7952423,   1.27131653,   1.67340219
   5805,   23.8667736,   1.27841067,    0.7647385
   5806,   23.4147282,    1.2896862, -0.627828121
   5807,   23.4187622,    1.2956084,  -1.38126993
   5808,   24.4466953,   1.27800632,  0.763258636
   5809,   24.7878304,   1.26853514,   1.93648517
   5810,   24.5070534,   1.26211715,   2.77824092
   5811,   24.5568123,   1.24772549,   4.60378551
   5812,   25.8161507,    1.2450676,   4.82684946
   5813,   25.7313614,   1.25381589,   3.72213721
   5814,   25.5791054,   1.26071501,   2.85871649
   5815,   25.4641609,   1.26807451,   1.93335426
   5816,   25.5017052,   1.27858663,  0.593173623
   5817,   25.4850445,   1.28594446, -0.340661079
   5818,   26.7582569,   1.24609995,   4.60959291
   5819,   26.6327972,    1.2530551,     3.736624
   5820,   26.7264557,   1.26129556,   2.68017602
   5821,   26.4712925,   1.27115631,   1.44954395
   5822,   26.4077549,   1.27657819,  0.765896261
   5823,   27.8403053,   1.24350262,   4.83155632
   5824,   27.6101971,   1.25065064,    3.9531858
   5825,   27.6375809,   1.25869775,   2.92739224
   5826,    27.888586,   1.26630235,   1.93744719
   5827,   28.9607887,   1.25233936,   3.61518145
   5828,   28.6238842,   1.26072121,   2.58006024
   5829,   29.5940208,   1.24903107,   3.97807026
   5830,   23.2972469,   1.28331721,  0.194230527
   5831,   1.86108637,   1.29327703,  0.882577956
   5832,   2.04425263,   1.29559946,   0.57045567
   5833,   23.0021019,   1.29732156,  -1.56110322
   5834, -0.274184495,   1.27734053,   3.09922981
   5835,   25.0683994,     1.287925, -0.554576457
   5836,   22.5922356,   1.29891324,  -1.72610641
   5837,   22.6797352,   1.29203629, -0.859496415
   5838,    22.632246,   1.29551637,  -1.29780364
   5839,   22.7319317,   1.28859711, -0.426681221
   5840,   22.8172321,   1.28504395, 0.0191043131
   5841,   23.7636909,    1.2828908,  0.204439968
   5842,   24.2332745,   1.29188299, -0.981832147
   5843,   24.6480103,   1.28991759, -0.769690931
   5844,   25.8958263,   1.28396058, -0.125745833
   5845,   23.8331833,   1.29383743,  -1.19386578
   5846,   26.2910843,   1.28191793, 0.0980962142
   5847,   5.60698938,   1.24395156,   6.79890728
   5848,    21.575407,   1.23625588,   6.32940722
   5849,   27.3554707,   1.24293911,   4.94789886
   5850,   20.5006409,    1.2364012,   6.41009855
   5851,   19.9604549,   1.23465955,   6.68080044
   5852,   28.3208179,    1.2440033,   4.72334862
   5853,   29.7564163,   1.24530435,   4.42307425
   5854,   22.5173721,   1.23684418,   6.16606045
   5855,   25.9212551,   1.24121261,   5.29865742
   5856,   30.6883984,   1.24583876,   4.26653528
   5857,   19.1825333,    1.2324264,   7.03346062
   5858,   31.1334953,   1.24647462,   4.14913797
   5859,   22.0517464,   1.23677862,   6.21758127
   5860,   25.4580708,   1.24062026,    5.4169569
   5861,   29.2814236,   1.24494171,    4.5145359
   5862,   30.2281189,   1.24554121,   4.34783888
   5863,    21.088129,   1.23627126,   6.37230778
   5864,   26.3902874,    1.2418164,   5.17905426
   5865,   28.8004169,   1.24447107,   4.61944103
   5866,   23.3992882,   1.23828244,   5.90345669
   5867,     24.97966,   1.24023235,   5.51097727
   5868, -0.849388361,   1.26204658,   5.07727861
   5869,  0.659415662,   1.25845468,   5.40167046
   5870,  0.143152431,   1.25957918,   5.30262566
   5871,   4.55343962,   1.24872088,   6.29541349
   5872,   5.11638975,   1.24598813,   6.58809137
   5873,   3.96257758,   1.24970472,   6.21915245
   5874,   3.46438932,   1.25050259,   6.16062546
   5875, -0.357435375,   1.26078069,   5.19330168
   5876,   21.9784889,   1.25319481,   4.15228701
   5877,   22.9706955,   1.26744676,   2.24611688
   5878,    2.4013598,   1.27740037,   2.85366178
   5879,    2.1285181,   1.28034186,   2.50367522
   5880,   22.4328327,   1.25619709,   3.72807622
   5881,   4.61150026,    1.2543205,   5.60049248
   5882,   4.22533369,   1.25717556,   5.27038431
   5883,    3.5457828,   1.26401114,   4.45820761
   5884,   22.7628021,   1.26410162,   2.69152498
   5885,   20.8631401,   1.24480522,   5.33370352
   5886,   22.5797138,   1.26053751,   3.16131663
   5887,   20.0997162,   1.24013126,   6.00792694
   5888,    23.189476,   1.27069569,    1.8113277
   5889,   1.86421752,   1.28236783,    2.2696929
   5890,   5.38088655,   1.24853122,   6.27158022
   5891,  0.231919721,   1.29342365,   1.01236403
   5892, -0.0805461705,   1.28499973,   2.11096644
   5893,  0.198236778,   1.28881752,   1.60074484
   5894, -0.253598809,   1.28153825,   2.56566548
   5895, -0.725815356,   1.26588976,   4.58635569
   5896,  -0.60486871,   1.26966357,   4.09979582
   5897,   26.6691227,   1.27975154,   0.33918035
   5898,    30.538002,   1.25208497,   3.49621034
   5899,   29.7120037,   1.25682425,     2.974998
   5900,   28.1723194,   1.26884031,    1.5888468
   5901,   30.8537807,   1.24936211,   3.81067514
   5902,   27.0407791,   1.27723336,  0.625094056
   5903,   29.3028316,   1.25990355,    2.6215899
   5904,   27.7953281,   1.27169335,   1.26044023
   5905,   27.4155407,   1.27451658,  0.936158419
   5906,   28.9205151,   1.26299179,   2.26409292
   5907,   30.1473961,   1.25441647,   3.23976398
   5908,  0.391107589,    1.2971735,  0.521144211
   5909,   1.50719607,   1.29632521,  0.527180612
   5910,   23.0753899,   1.28772974, -0.348075688
   5911,   23.0374088,   1.25955784,   3.23783541
   5912,   1.30363238,   1.28039265,   2.57176495
   5913,  0.727406323,   1.29040289,    1.3514241
   5914,   24.0834217,   1.28030276,  0.504376352
   5915,   22.9696198,   1.23707736,   6.09510994
   5916,   23.1074104,   1.24109519,   5.57918501
   5917,    1.5233202,   1.29308403,  0.937864482
   5918,   22.7147675,   1.25205505,   4.22134495
   5919,   24.9316711,   1.28521478, -0.197660968
   5920,   3.57359123,   1.25888026,   5.10018253
   5921,   22.0041809,   1.24122286,   5.66363382
   5922,   28.1922379,   1.24766088,   4.28024626
   5923,   23.3991966,   1.29285169,  -1.02893507
   5924,   19.6859722,   1.23812485,   6.30542421
   5925,   23.0152683,   1.29421234,   -1.1669215
   5926,   23.0441647,   1.29090405,  -0.74886775
   5927,   21.1612434,   1.24096119,   5.77384186
   5928,   23.7754707,   1.29133022, -0.869788766
   5929, 0.0566696115,   1.28104973,        2.602
   5930,   25.3969707,   1.24418533,   4.97730112
   5931,   24.4775047,   1.24012566,   5.57177067
   5932,   30.4925308,   1.24874413,   3.93256879
   5933,   28.6588268,   1.24807644,   4.18482018
   5934,   29.1329288,   1.24861872,    4.0725975
   5935,   24.9554024,   1.24392903,   5.05018902
   5936,   23.5607872,   1.26865828,   2.03282046
   5937,   1.27594781,   1.25733221,   5.49113655
   5938,   4.37732887,   1.25255382,     5.831357
   5939,  0.250042886,   1.26359594,   4.80383062
   5940,   25.7065048,   1.28110266,  0.254531801
   5941,   25.3257771,   1.28322434, 0.0195026081
   5942,   2.67027307,   1.27415061,   3.24362969
   5943,   1.70067322,   1.28700829,   1.69444489
   5944,   21.2497635,   1.24744618,   4.95733261
   5945,   23.4108887,   1.27377641,   1.39793515
   5946,   26.7632065,   1.27419102,   1.03700554
   5947,   29.4502544,    1.2535671,   3.41437531
   5948,   28.2556248,   1.26355362,   2.25350356
   5949, 0.0967474878,   1.27487528,   3.38351154
   5950,  0.937332869,   1.29603291,  0.616339743
   5951,    23.163166,   1.26270008,   2.82676268
   5952,   3.42436552,   1.25425577,   5.70187759
   5953,   1.63475478,   1.29007328,   1.31066072
   5954,   2.39457083,   1.27199149,    3.5405407
   5955,   1.39070714,   1.28716803,   1.70223475
   5956,     24.50597,    1.2440877,   5.07101631
   5957,   1.21097958,   1.26189613,   4.93228006
   5958,    24.029377,    1.2736752,   1.35207748
   5959,   23.9744873,   1.28393722, 0.0521450378
   5960,  0.336743057,   1.26745725,   4.30490494
   5961,   23.4397697,     1.258708,   3.30917573
   5962,   24.9611835,   1.24769413,   4.57085848
   5963,   25.1514568,   1.28072643,  0.353050411
   5964,   1.96062696,   1.25850666,   5.29490519
   5965,   1.19172728,   1.28494143,   2.00353599
   5966,   24.5256119,   1.28725338, -0.419838756
   5967,   23.3925438,   1.24349988,   5.24737644
   5968,   22.3165226,   1.24487138,   5.17115736
   5969,   23.2548847,   1.25226319,   4.14557266
   5970,   3.25740433,    1.2623893,   4.68282938
   5971,    21.596487,   1.24432695,   5.30611849
   5972,   24.1638565,   1.26890278,    1.9466933
   5973,   20.6978493,   1.24006987,   5.92950249
   5974,  0.263532758,   1.28292251,    2.3449955
   5975, -0.0439006649,   1.27192378,    3.7716732
   5976,   24.2450314,   1.26447701,   2.50207138
   5977,  0.923492193,   1.28741813,   1.71310246
   5978,   24.3949051,   1.28474081, -0.0883946419
   5979,  0.886064947,   1.28143096,    2.4778583
   5980,    24.976656,   1.27832961,  0.673760712
   5981,   2.36284995,   1.26680827,   4.20253086
   5982,   24.1580582,   1.24824095,   4.57462215
   5983,  0.846562266,   1.26707411,   4.30709696
   5984,   2.52595758,   1.25624931,   5.53036261
   5985,   22.9728298,   1.24560571,   5.01791573
   5986,   22.7190685,   1.24300504,   5.37175894
   5987,   23.9216442,   1.25986743,   3.11773872
   5988,   21.9554958,   1.24736989,   4.88642073
   5989,   23.6951408,   1.28938031, -0.614514768
   5990,   2.32792664,   1.26148522,   4.88261127
   5991,  0.148014098,   1.27885723,   2.87247419
   5992,   25.6188431,     1.249542,   4.27587223
   5993,   29.0054932,   1.25762212,   2.93934321
   5994,   2.69134521,   1.25890958,   5.17698288
   5995,   1.11865008,   1.29221308,   1.08554447
   5996,   24.5024357,   1.26641417,   2.23224664
   5997,   25.7796021,    1.2761991,  0.871426105
   5998,   24.5363026,   1.25136042,   4.14344645
   5999,   22.8341885,   1.24942029,   4.54546738
   6000,   28.6707973,   1.25579071,   3.20275998
   6001,   1.20335662,   1.27738285,   2.96364713
   6002,   25.3615513,   1.27398634,    1.1909616
   6003,   24.2826099,   1.25520921,   3.67715335
   6004,   24.2245178,   1.25078416,   4.24515343
   6005,   2.95128632,    1.2656498,   4.29614305
   6006,   1.47749603,   1.26621318,   4.35899496
   6007,   2.03912187,   1.26464903,   4.50666237
   6008,   26.1827755,   1.24950123,   4.22958565
   6009,   24.8008022,   1.26361036,   2.56156778
   6010,   25.0289135,   1.25194895,   4.02365351
   6011,   23.7435513,   1.24986887,   4.40544748
   6012,   24.7801552,   1.28275597,  0.128851563
   6013,    26.104353,   1.27364683,    1.1663394
   6014,   22.3026791,   1.25010085,   4.50742483
   6015,   1.63803387,   1.27468419,   3.26714826
   6016,   1.99865377,   1.25401711,   5.83332109
   6017,    27.241518,   1.24657536,   4.50502539
   6018,   24.4175835,   1.27112746,   1.64063168
   6019,   3.23945451,   1.26740432,   4.05295229
   6020,   1.40306258,   1.27604675,   3.11532617
   6021,   23.9586201,   1.25264192,   4.03320646
   6022,   24.6580677,   1.27341557,   1.32773936
   6023,   24.2495975,   1.27585149,   1.05525875
   6024,   25.0763512,   1.27097273,   1.60019076
   6025,   23.1694469,   1.24850988,   4.63063908
   6026,   24.2899513,   1.25883317,   3.21567059
   6027,   26.2783279,   1.24564505,   4.71121788
   6028,   1.26961648,   1.26913929,   4.00590038
   6029,   1.80209088,   1.26777577,   4.13067484
   6030,   26.1864052,   1.25323558,    3.7544136
   6031,    25.773777,   1.27086425,   1.55035472
   6032,   26.8716888,   1.24237263,   5.06432343
   6033,    28.306776,   1.25841093,   2.90277863
   6034,   27.7246246,   1.24711025,   4.39293146
   6035,   23.3581409,    1.2565155,   3.59542489
   6036,   26.2184238,   1.25673819,   3.30607557
   6037,  0.898636818,   1.27632785,   3.12562466
   6038,    26.166399,   1.26817918,   1.85596251
   6039,   27.1418285,   1.24995589,   4.08427143
   6040,   27.9752274,    1.2553916,   3.31700325
   6041,   24.7422428,   1.25589824,   3.54759884
   6042,   1.44779372,   1.27260065,   3.54948568
   6043,   27.0579224,   1.25302935,   3.70109224
   6044,   25.8258114,   1.25733018,   3.26662135
   6045,   26.5728436,   1.26596713,   2.10017061
   6046,    26.675333,    1.2496109,   4.17070436
   6047,   28.0691833,   1.25121284,   3.83980775
   6048,   23.6328773,   1.27639413,   1.04375625
   6049,   26.6745014,   1.25667238,     3.272825
   6050,   25.1209908,   1.26572752,   2.26311994
   6051,   25.3950138,   1.26293921,   2.59267735
   6052,   27.4924278,   1.25392795,   3.54718375
   6053,   26.2389717,   1.25995255,   2.89544511
   6054,   26.3490715,   1.26311326,   2.48349524
   6055,   27.2311001,   1.26632285,   1.99484098
   6056,   28.5167179,   1.25141788,   3.77286577
   6057,   27.0056171,   1.25543094,   3.40047026
   6058,   25.0611954,   1.26028275,   2.96094251
   6059,   25.8579941,   1.26474762,   2.32047486
   6060,    26.961668,   1.26375461,   2.34600782
   6061,   25.0412884,   1.25700331,   3.37979317
   6062,   27.2919788,     1.256814,   3.19845414
   6063,   27.5975647,   1.26378155,   2.28455305
   6064, -0.143437192,   1.26844859,   4.22265577
   6065,   1.14828515,   1.27289891,   3.53886342
   6066,   27.5121708,   1.26902914,   1.62507331
   6067,   18.3997993,   1.23162103,   7.22044706
   6068,   25.3246918,   1.25526047,    3.5755465
   6069,   24.0425968,    1.2448498,   5.01639843
   6070,   28.5458031,   1.26595366,   1.92177522
   6071,   18.5989704,   1.23299348,    7.0442853
   6072,   18.8803864,   1.23447585,   6.80665302
   6073,   15.6611795,   1.22882497,   8.05513477
   6074,   15.2696934,   1.22943044,   8.14324856
   6075,   19.2627869,    1.2361002,   6.56519938
   6076,   2.48480654,   1.25279784,   5.95252562
   6077,   2.96762419,   1.25148773,   6.07842159
   6078,    23.520319,   1.28133619,  0.425857335
   6079,   23.0447235,   1.28534877, -0.0424913093
   6080,   6.55943727,   1.24050498,   7.15888548
   6081,   7.01124096,   1.23850501,   7.32884216
   6082,   7.37518644,   1.23732448,   7.45764732
   6083,   8.44607258,   1.23594069,    7.7154026
   6084,   8.83481312,   1.23687279,   7.81790066
   6085,   9.31391048,   1.23830175,   7.94518471
   6086,   9.80556011,   1.23897529,   8.06927872
   6087,   7.57006311,   1.23985302,   7.38666105
   6088,    7.1846056,   1.23976827,   7.20100355
   6089,   6.73922586,   1.24254012,    6.9907527
   6090,   6.28204966,   1.24426079,   6.76993608
   6091,   5.82934666,   1.24621511,   6.53321075
   6092,   2.94863057,   1.27078927,    3.6472404
   6093,   14.7882185,   1.22874916,   8.24983692
   6094,   14.2922335,    1.2279948,   8.35224533
   6095,   13.7899265,   1.22747457,   8.44358826
   6096,   13.2927341,   1.22644222,   8.51933193
   6097,   12.7994385,   1.22498226,   8.56882191
   6098,   12.3046093,   1.22717524,   8.52985668
   6099,   11.8022203,   1.22891021,   8.46465492
   6100,   11.3006935,   1.23187506,   8.38232803
   6101,   10.8000259,   1.23502457,   8.28869057
   6102,   10.3013134,   1.23784065,   8.18394089
   6103,   30.0692024,   1.24883866,   3.95920181
   6104,   26.0553913,   1.27893925,  0.497794539
   6105,   27.1330509,   1.27167392,   1.32336175
   6106,   1.26415181,    1.2892524,   1.44873142
   6107,   22.5232849,   1.24013162,   5.75502634
   6108,   23.3434582,   1.26574838,   2.42268157
   6109,   30.3690357,   1.25095916,   3.66216111
   6110,   30.0092869,   1.25198066,   3.56510377
   6111,   23.9407101,   1.28670275, -0.296442866
   6112,   1.87044799,   1.27731705,   2.91115952
   6113,   2.13410234,    1.2749058,   3.19372487
   6114,   26.8462181,   1.26881707,   1.71281552
   6115,   27.9533615,   1.26109481,   2.59374714
   6116,   2.98458815,   1.25708437,   5.38231468
   6117,    23.552248,   1.26131856,   2.96695614
   6118,   23.9191418,   1.26658535,   2.26371932
   6119,   25.3136272,   1.24714637,    4.6083827
   6120,   23.4919052,   1.28609574, -0.178298548
   6121,  0.539979637,   1.27672935,   3.10729098
   6122,   2.96572113,   1.26083851,    4.9066534
   6123,   24.2693062,   1.28233087,   0.22953257
   6124,   24.6178265,   1.28033233,  0.451839387
   6125,  0.262863606,   1.27690351,   3.11045218
   6126,   3.25414014,   1.25782537,    5.2634902
   6127,   28.4009247,   1.25417888,   3.43235517
   6128,   1.87250412,   1.27252865,   3.51986909
   6129,   2.11130643,   1.26981151,   3.84360647
   6130,   24.8455276,   1.27586484,  0.999170244
   6131,  0.425913721,   1.27396703,   3.46896744
   6132,  0.772086978,   1.27114606,   3.79609776
   6133,   25.2869797,   1.27699304,  0.815428257
   6134,   23.8146954,   1.25712538,   3.47618866
   6135,   27.3088665,   1.26137137,   2.61739159
   6136,   24.0365353,   1.26240063,   2.78512692
   6137,   27.0157623,   1.25912738,   2.92951012
   6138,   0.68484354,   1.27367926,   3.48194647
   6139,   1.18133795,   1.26510262,   4.52723789
   6140,   24.2810211,   1.26113582,   2.92366433
   6141,   24.6511669,   1.25925922,   3.12850356
   6142,   25.4532299,   1.25839233,   3.16556144
   6143,   25.8841553,   1.26066065,   2.83779788
   6144,   26.5420589,   1.25932741,   2.94729018
*Element, type=C3D8R
   1,   14,  345, 1647,  404,    1,   71, 1382,  178
   2,  345,  344, 1648, 1647,   71,   72, 1383, 1382
   3,  344,  343, 1649, 1648,   72,   73, 1384, 1383
   4,  343,  342, 1650, 1649,   73,   74, 1385, 1384
   5,  342,  341, 1651, 1650,   74,   75, 1386, 1385
   6,  341,  340, 1652, 1651,   75,   76, 1387, 1386
   7,  340,  339, 1653, 1652,   76,   77, 1388, 1387
   8,  339,  338, 1654, 1653,   77,   78, 1389, 1388
   9,  338,  337, 1655, 1654,   78,   79, 1390, 1389
  10,  337,  336, 1656, 1655,   79,   80, 1391, 1390
  11,  336,  335, 1657, 1656,   80,   81, 1392, 1391
  12,  335,  334, 1658, 1657,   81,   82, 1393, 1392
  13,  334,  333, 1659, 1658,   82,   83, 1394, 1393
  14,  333,  332, 1660, 1659,   83,   84, 1395, 1394
  15,  332,  331, 1661, 1660,   84,   85, 1396, 1395
  16,  331,  330, 1662, 1661,   85,   86, 1397, 1396
  17,  330,  329, 1663, 1662,   86,   87, 1398, 1397
  18,  329,  328, 1664, 1663,   87,   88, 1399, 1398
  19,  328,  327, 1665, 1664,   88,   89, 1400, 1399
  20,  327,  326, 1666, 1665,   89,   90, 1401, 1400
  21,  326,  325, 1667, 1666,   90,   91, 1402, 1401
  22,  325,  324, 1668, 1667,   91,   92, 1403, 1402
  23,  324,  323, 1669, 1668,   92,   93, 1404, 1403
  24,  323,  322, 1670, 1669,   93,   94, 1405, 1404
  25,  322,  321, 1671, 1670,   94,   95, 1406, 1405
  26,  321,  320, 1672, 1671,   95,   96, 1407, 1406
  27,  320,  319, 1673, 1672,   96,   97, 1408, 1407
  28,  319,  318, 1674, 1673,   97,   98, 1409, 1408
  29,  318,  317, 1675, 1674,   98,   99, 1410, 1409
  30,  317,  316, 1676, 1675,   99,  100, 1411, 1410
  31,  316,  315, 1677, 1676,  100,  101, 1412, 1411
  32,  315,  314, 1678, 1677,  101,  102, 1413, 1412
  33,  314,  313, 1679, 1678,  102,  103, 1414, 1413
  34,  313,  312, 1680, 1679,  103,  104, 1415, 1414
  35,  312,  311, 1681, 1680,  104,  105, 1416, 1415
  36,  311,  310, 1682, 1681,  105,  106, 1417, 1416
  37,  310,  309, 1683, 1682,  106,  107, 1418, 1417
  38,  309,  308, 1684, 1683,  107,  108, 1419, 1418
  39,  308,  307, 1685, 1684,  108,  109, 1420, 1419
  40,  307,  306, 1686, 1685,  109,  110, 1421, 1420
  41,  306,  305, 1687, 1686,  110,  111, 1422, 1421
  42,  305,  304, 1688, 1687,  111,  112, 1423, 1422
  43,  304,  303, 1689, 1688,  112,  113, 1424, 1423
  44,  303,  302, 1690, 1689,  113,  114, 1425, 1424
  45,  302,  301, 1691, 1690,  114,  115, 1426, 1425
  46,  301,  300, 1692, 1691,  115,  116, 1427, 1426
  47,  300,  299, 1693, 1692,  116,  117, 1428, 1427
  48,  299,  298, 1694, 1693,  117,  118, 1429, 1428
  49,  298,  297, 1695, 1694,  118,  119, 1430, 1429
  50,  297,  296, 1696, 1695,  119,  120, 1431, 1430
  51,  296,  295, 1697, 1696,  120,  121, 1432, 1431
  52,  295,  294, 1698, 1697,  121,  122, 1433, 1432
  53,  294,  293, 1699, 1698,  122,  123, 1434, 1433
  54,  293,    9,  346, 1699,  123,    2,  124, 1434
  55,  404, 1647, 1700,   15,  178, 1382,  177,    4
  56, 1647, 1648, 1701, 1700, 1382, 1383,  176,  177
  57, 1648, 1649, 1702, 1701, 1383, 1384,  175,  176
  58, 1649, 1650, 1703, 1702, 1384, 1385,  174,  175
  59, 1650, 1651, 1704, 1703, 1385, 1386,  173,  174
  60, 1651, 1652, 1705, 1704, 1386, 1387,  172,  173
  61, 1652, 1653, 1706, 1705, 1387, 1388,  171,  172
  62, 1653, 1654, 1707, 1706, 1388, 1389,  170,  171
  63, 1654, 1655, 1708, 1707, 1389, 1390,  169,  170
  64, 1655, 1656, 1709, 1708, 1390, 1391,  168,  169
  65, 1656, 1657, 1710, 1709, 1391, 1392,  167,  168
  66, 1657, 1658, 1711, 1710, 1392, 1393,  166,  167
  67, 1658, 1659, 1712, 1711, 1393, 1394,  165,  166
  68, 1659, 1660, 1713, 1712, 1394, 1395,  164,  165
  69, 1660, 1661, 1714, 1713, 1395, 1396,  163,  164
  70, 1661, 1662, 1715, 1714, 1396, 1397,  162,  163
  71, 1662, 1663, 1716, 1715, 1397, 1398,  161,  162
  72, 1663, 1664, 1717, 1716, 1398, 1399,  160,  161
  73, 1664, 1665, 1718, 1717, 1399, 1400,  159,  160
  74, 1665, 1666, 1719, 1718, 1400, 1401,  158,  159
  75, 1666, 1667, 1720, 1719, 1401, 1402,  157,  158
  76, 1667, 1668, 1721, 1720, 1402, 1403,  156,  157
  77, 1668, 1669, 1722, 1721, 1403, 1404,  155,  156
  78, 1669, 1670, 1723, 1722, 1404, 1405,  154,  155
  79, 1670, 1671, 1724, 1723, 1405, 1406,  153,  154
  80, 1671, 1672, 1725, 1724, 1406, 1407,  152,  153
  81, 1672, 1673, 1726, 1725, 1407, 1408,  151,  152
  82, 1673, 1674, 1727, 1726, 1408, 1409,  150,  151
  83, 1674, 1675, 1728, 1727, 1409, 1410,  149,  150
  84, 1675, 1676, 1729, 1728, 1410, 1411,  148,  149
  85, 1676, 1677, 1730, 1729, 1411, 1412,  147,  148
  86, 1677, 1678, 1731, 1730, 1412, 1413,  146,  147
  87, 1678, 1679, 1732, 1731, 1413, 1414,  145,  146
  88, 1679, 1680, 1733, 1732, 1414, 1415,  144,  145
  89, 1680, 1681, 1734, 1733, 1415, 1416,  143,  144
  90, 1681, 1682, 1735, 1734, 1416, 1417,  142,  143
  91, 1682, 1683, 1736, 1735, 1417, 1418,  141,  142
  92, 1683, 1684, 1737, 1736, 1418, 1419,  140,  141
  93, 1684, 1685, 1738, 1737, 1419, 1420,  139,  140
  94, 1685, 1686, 1739, 1738, 1420, 1421,  138,  139
  95, 1686, 1687, 1740, 1739, 1421, 1422,  137,  138
  96, 1687, 1688, 1741, 1740, 1422, 1423,  136,  137
  97, 1688, 1689, 1742, 1741, 1423, 1424,  135,  136
  98, 1689, 1690, 1743, 1742, 1424, 1425,  134,  135
  99, 1690, 1691, 1744, 1743, 1425, 1426,  133,  134
 100, 1691, 1692, 1745, 1744, 1426, 1427,  132,  133
 101, 1692, 1693, 1746, 1745, 1427, 1428,  131,  132
 102, 1693, 1694, 1747, 1746, 1428, 1429,  130,  131
 103, 1694, 1695, 1748, 1747, 1429, 1430,  129,  130
 104, 1695, 1696, 1749, 1748, 1430, 1431,  128,  129
 105, 1696, 1697, 1750, 1749, 1431, 1432,  127,  128
 106, 1697, 1698, 1751, 1750, 1432, 1433,  126,  127
 107, 1698, 1699, 1752, 1751, 1433, 1434,  125,  126
 108, 1699,  346,   10, 1752, 1434,  124,    3,  125
 109,   15, 1700, 1753,  405,    4,  177, 1435,  237
 110, 1700, 1701, 1754, 1753,  177,  176, 1436, 1435
 111, 1701, 1702, 1755, 1754,  176,  175, 1437, 1436
 112, 1702, 1703, 1756, 1755,  175,  174, 1438, 1437
 113, 1703, 1704, 1757, 1756,  174,  173, 1439, 1438
 114, 1704, 1705, 1758, 1757,  173,  172, 1440, 1439
 115, 1705, 1706, 1759, 1758,  172,  171, 1441, 1440
 116, 1706, 1707, 1760, 1759,  171,  170, 1442, 1441
 117, 1707, 1708, 1761, 1760,  170,  169, 1443, 1442
 118, 1708, 1709, 1762, 1761,  169,  168, 1444, 1443
 119, 1709, 1710, 1763, 1762,  168,  167, 1445, 1444
 120, 1710, 1711, 1764, 1763,  167,  166, 1446, 1445
 121, 1711, 1712, 1765, 1764,  166,  165, 1447, 1446
 122, 1712, 1713, 1766, 1765,  165,  164, 1448, 1447
 123, 1713, 1714, 1767, 1766,  164,  163, 1449, 1448
 124, 1714, 1715, 1768, 1767,  163,  162, 1450, 1449
 125, 1715, 1716, 1769, 1768,  162,  161, 1451, 1450
 126, 1716, 1717, 1770, 1769,  161,  160, 1452, 1451
 127, 1717, 1718, 1771, 1770,  160,  159, 1453, 1452
 128, 1718, 1719, 1772, 1771,  159,  158, 1454, 1453
 129, 1719, 1720, 1773, 1772,  158,  157, 1455, 1454
 130, 1720, 1721, 1774, 1773,  157,  156, 1456, 1455
 131, 1721, 1722, 1775, 1774,  156,  155, 1457, 1456
 132, 1722, 1723, 1776, 1775,  155,  154, 1458, 1457
 133, 1723, 1724, 1777, 1776,  154,  153, 1459, 1458
 134, 1724, 1725, 1778, 1777,  153,  152, 1460, 1459
 135, 1725, 1726, 1779, 1778,  152,  151, 1461, 1460
 136, 1726, 1727, 1780, 1779,  151,  150, 1462, 1461
 137, 1727, 1728, 1781, 1780,  150,  149, 1463, 1462
 138, 1728, 1729, 1782, 1781,  149,  148, 1464, 1463
 139, 1729, 1730, 1783, 1782,  148,  147, 1465, 1464
 140, 1730, 1731, 1784, 1783,  147,  146, 1466, 1465
 141, 1731, 1732, 1785, 1784,  146,  145, 1467, 1466
 142, 1732, 1733, 1786, 1785,  145,  144, 1468, 1467
 143, 1733, 1734, 1787, 1786,  144,  143, 1469, 1468
 144, 1734, 1735, 1788, 1787,  143,  142, 1470, 1469
 145, 1735, 1736, 1789, 1788,  142,  141, 1471, 1470
 146, 1736, 1737, 1790, 1789,  141,  140, 1472, 1471
 147, 1737, 1738, 1791, 1790,  140,  139, 1473, 1472
 148, 1738, 1739, 1792, 1791,  139,  138, 1474, 1473
 149, 1739, 1740, 1793, 1792,  138,  137, 1475, 1474
 150, 1740, 1741, 1794, 1793,  137,  136, 1476, 1475
 151, 1741, 1742, 1795, 1794,  136,  135, 1477, 1476
 152, 1742, 1743, 1796, 1795,  135,  134, 1478, 1477
 153, 1743, 1744, 1797, 1796,  134,  133, 1479, 1478
 154, 1744, 1745, 1798, 1797,  133,  132, 1480, 1479
 155, 1745, 1746, 1799, 1798,  132,  131, 1481, 1480
 156, 1746, 1747, 1800, 1799,  131,  130, 1482, 1481
 157, 1747, 1748, 1801, 1800,  130,  129, 1483, 1482
 158, 1748, 1749, 1802, 1801,  129,  128, 1484, 1483
 159, 1749, 1750, 1803, 1802,  128,  127, 1485, 1484
 160, 1750, 1751, 1804, 1803,  127,  126, 1486, 1485
 161, 1751, 1752, 1805, 1804,  126,  125, 1487, 1486
 162, 1752,   10,  349, 1805,  125,    3,  179, 1487
 163,  405, 1753, 1806,  406,  237, 1435, 1488,  236
 164, 1753, 1754, 1807, 1806, 1435, 1436, 1489, 1488
 165, 1754, 1755, 1808, 1807, 1436, 1437, 1490, 1489
 166, 1755, 1756, 1809, 1808, 1437, 1438, 1491, 1490
 167, 1756, 1757, 1810, 1809, 1438, 1439, 1492, 1491
 168, 1757, 1758, 1811, 1810, 1439, 1440, 1493, 1492
 169, 1758, 1759, 1812, 1811, 1440, 1441, 1494, 1493
 170, 1759, 1760, 1813, 1812, 1441, 1442, 1495, 1494
 171, 1760, 1761, 1814, 1813, 1442, 1443, 1496, 1495
 172, 1761, 1762, 1815, 1814, 1443, 1444, 1497, 1496
 173, 1762, 1763, 1816, 1815, 1444, 1445, 1498, 1497
 174, 1763, 1764, 1817, 1816, 1445, 1446, 1499, 1498
 175, 1764, 1765, 1818, 1817, 1446, 1447, 1500, 1499
 176, 1765, 1766, 1819, 1818, 1447, 1448, 1501, 1500
 177, 1766, 1767, 1820, 1819, 1448, 1449, 1502, 1501
 178, 1767, 1768, 1821, 1820, 1449, 1450, 1503, 1502
 179, 1768, 1769, 1822, 1821, 1450, 1451, 1504, 1503
 180, 1769, 1770, 1823, 1822, 1451, 1452, 1505, 1504
 181, 1770, 1771, 1824, 1823, 1452, 1453, 1506, 1505
 182, 1771, 1772, 1825, 1824, 1453, 1454, 1507, 1506
 183, 1772, 1773, 1826, 1825, 1454, 1455, 1508, 1507
 184, 1773, 1774, 1827, 1826, 1455, 1456, 1509, 1508
 185, 1774, 1775, 1828, 1827, 1456, 1457, 1510, 1509
 186, 1775, 1776, 1829, 1828, 1457, 1458, 1511, 1510
 187, 1776, 1777, 1830, 1829, 1458, 1459, 1512, 1511
 188, 1777, 1778, 1831, 1830, 1459, 1460, 1513, 1512
 189, 1778, 1779, 1832, 1831, 1460, 1461, 1514, 1513
 190, 1779, 1780, 1833, 1832, 1461, 1462, 1515, 1514
 191, 1780, 1781, 1834, 1833, 1462, 1463, 1516, 1515
 192, 1781, 1782, 1835, 1834, 1463, 1464, 1517, 1516
 193, 1782, 1783, 1836, 1835, 1464, 1465, 1518, 1517
 194, 1783, 1784, 1837, 1836, 1465, 1466, 1519, 1518
 195, 1784, 1785, 1838, 1837, 1466, 1467, 1520, 1519
 196, 1785, 1786, 1839, 1838, 1467, 1468, 1521, 1520
 197, 1786, 1787, 1840, 1839, 1468, 1469, 1522, 1521
 198, 1787, 1788, 1841, 1840, 1469, 1470, 1523, 1522
 199, 1788, 1789, 1842, 1841, 1470, 1471, 1524, 1523
 200, 1789, 1790, 1843, 1842, 1471, 1472, 1525, 1524
 201, 1790, 1791, 1844, 1843, 1472, 1473, 1526, 1525
 202, 1791, 1792, 1845, 1844, 1473, 1474, 1527, 1526
 203, 1792, 1793, 1846, 1845, 1474, 1475, 1528, 1527
 204, 1793, 1794, 1847, 1846, 1475, 1476, 1529, 1528
 205, 1794, 1795, 1848, 1847, 1476, 1477, 1530, 1529
 206, 1795, 1796, 1849, 1848, 1477, 1478, 1531, 1530
 207, 1796, 1797, 1850, 1849, 1478, 1479, 1532, 1531
 208, 1797, 1798, 1851, 1850, 1479, 1480, 1533, 1532
 209, 1798, 1799, 1852, 1851, 1480, 1481, 1534, 1533
 210, 1799, 1800, 1853, 1852, 1481, 1482, 1535, 1534
 211, 1800, 1801, 1854, 1853, 1482, 1483, 1536, 1535
 212, 1801, 1802, 1855, 1854, 1483, 1484, 1537, 1536
 213, 1802, 1803, 1856, 1855, 1484, 1485, 1538, 1537
 214, 1803, 1804, 1857, 1856, 1485, 1486, 1539, 1538
 215, 1804, 1805, 1858, 1857, 1486, 1487, 1540, 1539
 216, 1805,  349,  348, 1858, 1487,  179,  180, 1540
 217,  406, 1806, 1859,  407,  236, 1488, 1541,  235
 218, 1806, 1807, 1860, 1859, 1488, 1489, 1542, 1541
 219, 1807, 1808, 1861, 1860, 1489, 1490, 1543, 1542
 220, 1808, 1809, 1862, 1861, 1490, 1491, 1544, 1543
 221, 1809, 1810, 1863, 1862, 1491, 1492, 1545, 1544
 222, 1810, 1811, 1864, 1863, 1492, 1493, 1546, 1545
 223, 1811, 1812, 1865, 1864, 1493, 1494, 1547, 1546
 224, 1812, 1813, 1866, 1865, 1494, 1495, 1548, 1547
 225, 1813, 1814, 1867, 1866, 1495, 1496, 1549, 1548
 226, 1814, 1815, 1868, 1867, 1496, 1497, 1550, 1549
 227, 1815, 1816, 1869, 1868, 1497, 1498, 1551, 1550
 228, 1816, 1817, 1870, 1869, 1498, 1499, 1552, 1551
 229, 1817, 1818, 1871, 1870, 1499, 1500, 1553, 1552
 230, 1818, 1819, 1872, 1871, 1500, 1501, 1554, 1553
 231, 1819, 1820, 1873, 1872, 1501, 1502, 1555, 1554
 232, 1820, 1821, 1874, 1873, 1502, 1503, 1556, 1555
 233, 1821, 1822, 1875, 1874, 1503, 1504, 1557, 1556
 234, 1822, 1823, 1876, 1875, 1504, 1505, 1558, 1557
 235, 1823, 1824, 1877, 1876, 1505, 1506, 1559, 1558
 236, 1824, 1825, 1878, 1877, 1506, 1507, 1560, 1559
 237, 1825, 1826, 1879, 1878, 1507, 1508, 1561, 1560
 238, 1826, 1827, 1880, 1879, 1508, 1509, 1562, 1561
 239, 1827, 1828, 1881, 1880, 1509, 1510, 1563, 1562
 240, 1828, 1829, 1882, 1881, 1510, 1511, 1564, 1563
 241, 1829, 1830, 1883, 1882, 1511, 1512, 1565, 1564
 242, 1830, 1831, 1884, 1883, 1512, 1513, 1566, 1565
 243, 1831, 1832, 1885, 1884, 1513, 1514, 1567, 1566
 244, 1832, 1833, 1886, 1885, 1514, 1515, 1568, 1567
 245, 1833, 1834, 1887, 1886, 1515, 1516, 1569, 1568
 246, 1834, 1835, 1888, 1887, 1516, 1517, 1570, 1569
 247, 1835, 1836, 1889, 1888, 1517, 1518, 1571, 1570
 248, 1836, 1837, 1890, 1889, 1518, 1519, 1572, 1571
 249, 1837, 1838, 1891, 1890, 1519, 1520, 1573, 1572
 250, 1838, 1839, 1892, 1891, 1520, 1521, 1574, 1573
 251, 1839, 1840, 1893, 1892, 1521, 1522, 1575, 1574
 252, 1840, 1841, 1894, 1893, 1522, 1523, 1576, 1575
 253, 1841, 1842, 1895, 1894, 1523, 1524, 1577, 1576
 254, 1842, 1843, 1896, 1895, 1524, 1525, 1578, 1577
 255, 1843, 1844, 1897, 1896, 1525, 1526, 1579, 1578
 256, 1844, 1845, 1898, 1897, 1526, 1527, 1580, 1579
 257, 1845, 1846, 1899, 1898, 1527, 1528, 1581, 1580
 258, 1846, 1847, 1900, 1899, 1528, 1529, 1582, 1581
 259, 1847, 1848, 1901, 1900, 1529, 1530, 1583, 1582
 260, 1848, 1849, 1902, 1901, 1530, 1531, 1584, 1583
 261, 1849, 1850, 1903, 1902, 1531, 1532, 1585, 1584
 262, 1850, 1851, 1904, 1903, 1532, 1533, 1586, 1585
 263, 1851, 1852, 1905, 1904, 1533, 1534, 1587, 1586
 264, 1852, 1853, 1906, 1905, 1534, 1535, 1588, 1587
 265, 1853, 1854, 1907, 1906, 1535, 1536, 1589, 1588
 266, 1854, 1855, 1908, 1907, 1536, 1537, 1590, 1589
 267, 1855, 1856, 1909, 1908, 1537, 1538, 1591, 1590
 268, 1856, 1857, 1910, 1909, 1538, 1539, 1592, 1591
 269, 1857, 1858, 1911, 1910, 1539, 1540, 1593, 1592
 270, 1858,  348,  347, 1911, 1540,  180,  181, 1593
 271,  407, 1859, 1912,   16,  235, 1541,  234,    6
 272, 1859, 1860, 1913, 1912, 1541, 1542,  233,  234
 273, 1860, 1861, 1914, 1913, 1542, 1543,  232,  233
 274, 1861, 1862, 1915, 1914, 1543, 1544,  231,  232
 275, 1862, 1863, 1916, 1915, 1544, 1545,  230,  231
 276, 1863, 1864, 1917, 1916, 1545, 1546,  229,  230
 277, 1864, 1865, 1918, 1917, 1546, 1547,  228,  229
 278, 1865, 1866, 1919, 1918, 1547, 1548,  227,  228
 279, 1866, 1867, 1920, 1919, 1548, 1549,  226,  227
 280, 1867, 1868, 1921, 1920, 1549, 1550,  225,  226
 281, 1868, 1869, 1922, 1921, 1550, 1551,  224,  225
 282, 1869, 1870, 1923, 1922, 1551, 1552,  223,  224
 283, 1870, 1871, 1924, 1923, 1552, 1553,  222,  223
 284, 1871, 1872, 1925, 1924, 1553, 1554,  221,  222
 285, 1872, 1873, 1926, 1925, 1554, 1555,  220,  221
 286, 1873, 1874, 1927, 1926, 1555, 1556,  219,  220
 287, 1874, 1875, 1928, 1927, 1556, 1557,  218,  219
 288, 1875, 1876, 1929, 1928, 1557, 1558,  217,  218
 289, 1876, 1877, 1930, 1929, 1558, 1559,  216,  217
 290, 1877, 1878, 1931, 1930, 1559, 1560,  215,  216
 291, 1878, 1879, 1932, 1931, 1560, 1561,  214,  215
 292, 1879, 1880, 1933, 1932, 1561, 1562,  213,  214
 293, 1880, 1881, 1934, 1933, 1562, 1563,  212,  213
 294, 1881, 1882, 1935, 1934, 1563, 1564,  211,  212
 295, 1882, 1883, 1936, 1935, 1564, 1565,  210,  211
 296, 1883, 1884, 1937, 1936, 1565, 1566,  209,  210
 297, 1884, 1885, 1938, 1937, 1566, 1567,  208,  209
 298, 1885, 1886, 1939, 1938, 1567, 1568,  207,  208
 299, 1886, 1887, 1940, 1939, 1568, 1569,  206,  207
 300, 1887, 1888, 1941, 1940, 1569, 1570,  205,  206
 301, 1888, 1889, 1942, 1941, 1570, 1571,  204,  205
 302, 1889, 1890, 1943, 1942, 1571, 1572,  203,  204
 303, 1890, 1891, 1944, 1943, 1572, 1573,  202,  203
 304, 1891, 1892, 1945, 1944, 1573, 1574,  201,  202
 305, 1892, 1893, 1946, 1945, 1574, 1575,  200,  201
 306, 1893, 1894, 1947, 1946, 1575, 1576,  199,  200
 307, 1894, 1895, 1948, 1947, 1576, 1577,  198,  199
 308, 1895, 1896, 1949, 1948, 1577, 1578,  197,  198
 309, 1896, 1897, 1950, 1949, 1578, 1579,  196,  197
 310, 1897, 1898, 1951, 1950, 1579, 1580,  195,  196
 311, 1898, 1899, 1952, 1951, 1580, 1581,  194,  195
 312, 1899, 1900, 1953, 1952, 1581, 1582,  193,  194
 313, 1900, 1901, 1954, 1953, 1582, 1583,  192,  193
 314, 1901, 1902, 1955, 1954, 1583, 1584,  191,  192
 315, 1902, 1903, 1956, 1955, 1584, 1585,  190,  191
 316, 1903, 1904, 1957, 1956, 1585, 1586,  189,  190
 317, 1904, 1905, 1958, 1957, 1586, 1587,  188,  189
 318, 1905, 1906, 1959, 1958, 1587, 1588,  187,  188
 319, 1906, 1907, 1960, 1959, 1588, 1589,  186,  187
 320, 1907, 1908, 1961, 1960, 1589, 1590,  185,  186
 321, 1908, 1909, 1962, 1961, 1590, 1591,  184,  185
 322, 1909, 1910, 1963, 1962, 1591, 1592,  183,  184
 323, 1910, 1911, 1964, 1963, 1592, 1593,  182,  183
 324, 1911,  347,   11, 1964, 1593,  181,    5,  182
 325,   16, 1912, 1965,  408,    6,  234, 1594,  292
 326, 1912, 1913, 1966, 1965,  234,  233, 1595, 1594
 327, 1913, 1914, 1967, 1966,  233,  232, 1596, 1595
 328, 1914, 1915, 1968, 1967,  232,  231, 1597, 1596
 329, 1915, 1916, 1969, 1968,  231,  230, 1598, 1597
 330, 1916, 1917, 1970, 1969,  230,  229, 1599, 1598
 331, 1917, 1918, 1971, 1970,  229,  228, 1600, 1599
 332, 1918, 1919, 1972, 1971,  228,  227, 1601, 1600
 333, 1919, 1920, 1973, 1972,  227,  226, 1602, 1601
 334, 1920, 1921, 1974, 1973,  226,  225, 1603, 1602
 335, 1921, 1922, 1975, 1974,  225,  224, 1604, 1603
 336, 1922, 1923, 1976, 1975,  224,  223, 1605, 1604
 337, 1923, 1924, 1977, 1976,  223,  222, 1606, 1605
 338, 1924, 1925, 1978, 1977,  222,  221, 1607, 1606
 339, 1925, 1926, 1979, 1978,  221,  220, 1608, 1607
 340, 1926, 1927, 1980, 1979,  220,  219, 1609, 1608
 341, 1927, 1928, 1981, 1980,  219,  218, 1610, 1609
 342, 1928, 1929, 1982, 1981,  218,  217, 1611, 1610
 343, 1929, 1930, 1983, 1982,  217,  216, 1612, 1611
 344, 1930, 1931, 1984, 1983,  216,  215, 1613, 1612
 345, 1931, 1932, 1985, 1984,  215,  214, 1614, 1613
 346, 1932, 1933, 1986, 1985,  214,  213, 1615, 1614
 347, 1933, 1934, 1987, 1986,  213,  212, 1616, 1615
 348, 1934, 1935, 1988, 1987,  212,  211, 1617, 1616
 349, 1935, 1936, 1989, 1988,  211,  210, 1618, 1617
 350, 1936, 1937, 1990, 1989,  210,  209, 1619, 1618
 351, 1937, 1938, 1991, 1990,  209,  208, 1620, 1619
 352, 1938, 1939, 1992, 1991,  208,  207, 1621, 1620
 353, 1939, 1940, 1993, 1992,  207,  206, 1622, 1621
 354, 1940, 1941, 1994, 1993,  206,  205, 1623, 1622
 355, 1941, 1942, 1995, 1994,  205,  204, 1624, 1623
 356, 1942, 1943, 1996, 1995,  204,  203, 1625, 1624
 357, 1943, 1944, 1997, 1996,  203,  202, 1626, 1625
 358, 1944, 1945, 1998, 1997,  202,  201, 1627, 1626
 359, 1945, 1946, 1999, 1998,  201,  200, 1628, 1627
 360, 1946, 1947, 2000, 1999,  200,  199, 1629, 1628
 361, 1947, 1948, 2001, 2000,  199,  198, 1630, 1629
 362, 1948, 1949, 2002, 2001,  198,  197, 1631, 1630
 363, 1949, 1950, 2003, 2002,  197,  196, 1632, 1631
 364, 1950, 1951, 2004, 2003,  196,  195, 1633, 1632
 365, 1951, 1952, 2005, 2004,  195,  194, 1634, 1633
 366, 1952, 1953, 2006, 2005,  194,  193, 1635, 1634
 367, 1953, 1954, 2007, 2006,  193,  192, 1636, 1635
 368, 1954, 1955, 2008, 2007,  192,  191, 1637, 1636
 369, 1955, 1956, 2009, 2008,  191,  190, 1638, 1637
 370, 1956, 1957, 2010, 2009,  190,  189, 1639, 1638
 371, 1957, 1958, 2011, 2010,  189,  188, 1640, 1639
 372, 1958, 1959, 2012, 2011,  188,  187, 1641, 1640
 373, 1959, 1960, 2013, 2012,  187,  186, 1642, 1641
 374, 1960, 1961, 2014, 2013,  186,  185, 1643, 1642
 375, 1961, 1962, 2015, 2014,  185,  184, 1644, 1643
 376, 1962, 1963, 2016, 2015,  184,  183, 1645, 1644
 377, 1963, 1964, 2017, 2016,  183,  182, 1646, 1645
 378, 1964,   11,  350, 2017,  182,    5,  238, 1646
 379,  408, 1965,  351,   13,  292, 1594,  291,    8
 380, 1965, 1966,  352,  351, 1594, 1595,  290,  291
 381, 1966, 1967,  353,  352, 1595, 1596,  289,  290
 382, 1967, 1968,  354,  353, 1596, 1597,  288,  289
 383, 1968, 1969,  355,  354, 1597, 1598,  287,  288
 384, 1969, 1970,  356,  355, 1598, 1599,  286,  287
 385, 1970, 1971,  357,  356, 1599, 1600,  285,  286
 386, 1971, 1972,  358,  357, 1600, 1601,  284,  285
 387, 1972, 1973,  359,  358, 1601, 1602,  283,  284
 388, 1973, 1974,  360,  359, 1602, 1603,  282,  283
 389, 1974, 1975,  361,  360, 1603, 1604,  281,  282
 390, 1975, 1976,  362,  361, 1604, 1605,  280,  281
 391, 1976, 1977,  363,  362, 1605, 1606,  279,  280
 392, 1977, 1978,  364,  363, 1606, 1607,  278,  279
 393, 1978, 1979,  365,  364, 1607, 1608,  277,  278
 394, 1979, 1980,  366,  365, 1608, 1609,  276,  277
 395, 1980, 1981,  367,  366, 1609, 1610,  275,  276
 396, 1981, 1982,  368,  367, 1610, 1611,  274,  275
 397, 1982, 1983,  369,  368, 1611, 1612,  273,  274
 398, 1983, 1984,  370,  369, 1612, 1613,  272,  273
 399, 1984, 1985,  371,  370, 1613, 1614,  271,  272
 400, 1985, 1986,  372,  371, 1614, 1615,  270,  271
 401, 1986, 1987,  373,  372, 1615, 1616,  269,  270
 402, 1987, 1988,  374,  373, 1616, 1617,  268,  269
 403, 1988, 1989,  375,  374, 1617, 1618,  267,  268
 404, 1989, 1990,  376,  375, 1618, 1619,  266,  267
 405, 1990, 1991,  377,  376, 1619, 1620,  265,  266
 406, 1991, 1992,  378,  377, 1620, 1621,  264,  265
 407, 1992, 1993,  379,  378, 1621, 1622,  263,  264
 408, 1993, 1994,  380,  379, 1622, 1623,  262,  263
 409, 1994, 1995,  381,  380, 1623, 1624,  261,  262
 410, 1995, 1996,  382,  381, 1624, 1625,  260,  261
 411, 1996, 1997,  383,  382, 1625, 1626,  259,  260
 412, 1997, 1998,  384,  383, 1626, 1627,  258,  259
 413, 1998, 1999,  385,  384, 1627, 1628,  257,  258
 414, 1999, 2000,  386,  385, 1628, 1629,  256,  257
 415, 2000, 2001,  387,  386, 1629, 1630,  255,  256
 416, 2001, 2002,  388,  387, 1630, 1631,  254,  255
 417, 2002, 2003,  389,  388, 1631, 1632,  253,  254
 418, 2003, 2004,  390,  389, 1632, 1633,  252,  253
 419, 2004, 2005,  391,  390, 1633, 1634,  251,  252
 420, 2005, 2006,  392,  391, 1634, 1635,  250,  251
 421, 2006, 2007,  393,  392, 1635, 1636,  249,  250
 422, 2007, 2008,  394,  393, 1636, 1637,  248,  249
 423, 2008, 2009,  395,  394, 1637, 1638,  247,  248
 424, 2009, 2010,  396,  395, 1638, 1639,  246,  247
 425, 2010, 2011,  397,  396, 1639, 1640,  245,  246
 426, 2011, 2012,  398,  397, 1640, 1641,  244,  245
 427, 2012, 2013,  399,  398, 1641, 1642,  243,  244
 428, 2013, 2014,  400,  399, 1642, 1643,  242,  243
 429, 2014, 2015,  401,  400, 1643, 1644,  241,  242
 430, 2015, 2016,  402,  401, 1644, 1645,  240,  241
 431, 2016, 2017,  403,  402, 1645, 1646,  239,  240
 432, 2017,  350,   12,  403, 1646,  238,    7,  239
 433,    9,  293, 1699,  346,   17,  409, 2018,  520
 434,  293,  294, 1698, 1699,  409,  410, 2019, 2018
 435,  294,  295, 1697, 1698,  410,  411, 2020, 2019
 436,  295,  296, 1696, 1697,  411,  412, 2021, 2020
 437,  296,  297, 1695, 1696,  412,  413, 2022, 2021
 438,  297,  298, 1694, 1695,  413,  414, 2023, 2022
 439,  298,  299, 1693, 1694,  414,  415, 2024, 2023
 440,  299,  300, 1692, 1693,  415,  416, 2025, 2024
 441,  300,  301, 1691, 1692,  416,  417, 2026, 2025
 442,  301,  302, 1690, 1691,  417,  418, 2027, 2026
 443,  302,  303, 1689, 1690,  418,  419, 2028, 2027
 444,  303,  304, 1688, 1689,  419,  420, 2029, 2028
 445,  304,  305, 1687, 1688,  420,  421, 2030, 2029
 446,  305,  306, 1686, 1687,  421,  422, 2031, 2030
 447,  306,  307, 1685, 1686,  422,  423, 2032, 2031
 448,  307,  308, 1684, 1685,  423,  424, 2033, 2032
 449,  308,  309, 1683, 1684,  424,  425, 2034, 2033
 450,  309,  310, 1682, 1683,  425,  426, 2035, 2034
 451,  310,  311, 1681, 1682,  426,  427, 2036, 2035
 452,  311,  312, 1680, 1681,  427,  428, 2037, 2036
 453,  312,  313, 1679, 1680,  428,  429, 2038, 2037
 454,  313,  314, 1678, 1679,  429,  430, 2039, 2038
 455,  314,  315, 1677, 1678,  430,  431, 2040, 2039
 456,  315,  316, 1676, 1677,  431,  432, 2041, 2040
 457,  316,  317, 1675, 1676,  432,  433, 2042, 2041
 458,  317,  318, 1674, 1675,  433,  434, 2043, 2042
 459,  318,  319, 1673, 1674,  434,  435, 2044, 2043
 460,  319,  320, 1672, 1673,  435,  436, 2045, 2044
 461,  320,  321, 1671, 1672,  436,  437, 2046, 2045
 462,  321,  322, 1670, 1671,  437,  438, 2047, 2046
 463,  322,  323, 1669, 1670,  438,  439, 2048, 2047
 464,  323,  324, 1668, 1669,  439,  440, 2049, 2048
 465,  324,  325, 1667, 1668,  440,  441, 2050, 2049
 466,  325,  326, 1666, 1667,  441,  442, 2051, 2050
 467,  326,  327, 1665, 1666,  442,  443, 2052, 2051
 468,  327,  328, 1664, 1665,  443,  444, 2053, 2052
 469,  328,  329, 1663, 1664,  444,  445, 2054, 2053
 470,  329,  330, 1662, 1663,  445,  446, 2055, 2054
 471,  330,  331, 1661, 1662,  446,  447, 2056, 2055
 472,  331,  332, 1660, 1661,  447,  448, 2057, 2056
 473,  332,  333, 1659, 1660,  448,  449, 2058, 2057
 474,  333,  334, 1658, 1659,  449,  450, 2059, 2058
 475,  334,  335, 1657, 1658,  450,  451, 2060, 2059
 476,  335,  336, 1656, 1657,  451,  452, 2061, 2060
 477,  336,  337, 1655, 1656,  452,  453, 2062, 2061
 478,  337,  338, 1654, 1655,  453,  454, 2063, 2062
 479,  338,  339, 1653, 1654,  454,  455, 2064, 2063
 480,  339,  340, 1652, 1653,  455,  456, 2065, 2064
 481,  340,  341, 1651, 1652,  456,  457, 2066, 2065
 482,  341,  342, 1650, 1651,  457,  458, 2067, 2066
 483,  342,  343, 1649, 1650,  458,  459, 2068, 2067
 484,  343,  344, 1648, 1649,  459,  460, 2069, 2068
 485,  344,  345, 1647, 1648,  460,  461, 2070, 2069
 486,  345,   14,  404, 1647,  461,   18,  462, 2070
 487,  346, 1699, 1752,   10,  520, 2018, 2071,   22
 488, 1699, 1698, 1751, 1752, 2018, 2019, 2072, 2071
 489, 1698, 1697, 1750, 1751, 2019, 2020, 2073, 2072
 490, 1697, 1696, 1749, 1750, 2020, 2021, 2074, 2073
 491, 1696, 1695, 1748, 1749, 2021, 2022, 2075, 2074
 492, 1695, 1694, 1747, 1748, 2022, 2023, 2076, 2075
 493, 1694, 1693, 1746, 1747, 2023, 2024, 2077, 2076
 494, 1693, 1692, 1745, 1746, 2024, 2025, 2078, 2077
 495, 1692, 1691, 1744, 1745, 2025, 2026, 2079, 2078
 496, 1691, 1690, 1743, 1744, 2026, 2027, 2080, 2079
 497, 1690, 1689, 1742, 1743, 2027, 2028, 2081, 2080
 498, 1689, 1688, 1741, 1742, 2028, 2029, 2082, 2081
 499, 1688, 1687, 1740, 1741, 2029, 2030, 2083, 2082
 500, 1687, 1686, 1739, 1740, 2030, 2031, 2084, 2083
 501, 1686, 1685, 1738, 1739, 2031, 2032, 2085, 2084
 502, 1685, 1684, 1737, 1738, 2032, 2033, 2086, 2085
 503, 1684, 1683, 1736, 1737, 2033, 2034, 2087, 2086
 504, 1683, 1682, 1735, 1736, 2034, 2035, 2088, 2087
 505, 1682, 1681, 1734, 1735, 2035, 2036, 2089, 2088
 506, 1681, 1680, 1733, 1734, 2036, 2037, 2090, 2089
 507, 1680, 1679, 1732, 1733, 2037, 2038, 2091, 2090
 508, 1679, 1678, 1731, 1732, 2038, 2039, 2092, 2091
 509, 1678, 1677, 1730, 1731, 2039, 2040, 2093, 2092
 510, 1677, 1676, 1729, 1730, 2040, 2041, 2094, 2093
 511, 1676, 1675, 1728, 1729, 2041, 2042, 2095, 2094
 512, 1675, 1674, 1727, 1728, 2042, 2043, 2096, 2095
 513, 1674, 1673, 1726, 1727, 2043, 2044, 2097, 2096
 514, 1673, 1672, 1725, 1726, 2044, 2045, 2098, 2097
 515, 1672, 1671, 1724, 1725, 2045, 2046, 2099, 2098
 516, 1671, 1670, 1723, 1724, 2046, 2047, 2100, 2099
 517, 1670, 1669, 1722, 1723, 2047, 2048, 2101, 2100
 518, 1669, 1668, 1721, 1722, 2048, 2049, 2102, 2101
 519, 1668, 1667, 1720, 1721, 2049, 2050, 2103, 2102
 520, 1667, 1666, 1719, 1720, 2050, 2051, 2104, 2103
 521, 1666, 1665, 1718, 1719, 2051, 2052, 2105, 2104
 522, 1665, 1664, 1717, 1718, 2052, 2053, 2106, 2105
 523, 1664, 1663, 1716, 1717, 2053, 2054, 2107, 2106
 524, 1663, 1662, 1715, 1716, 2054, 2055, 2108, 2107
 525, 1662, 1661, 1714, 1715, 2055, 2056, 2109, 2108
 526, 1661, 1660, 1713, 1714, 2056, 2057, 2110, 2109
 527, 1660, 1659, 1712, 1713, 2057, 2058, 2111, 2110
 528, 1659, 1658, 1711, 1712, 2058, 2059, 2112, 2111
 529, 1658, 1657, 1710, 1711, 2059, 2060, 2113, 2112
 530, 1657, 1656, 1709, 1710, 2060, 2061, 2114, 2113
 531, 1656, 1655, 1708, 1709, 2061, 2062, 2115, 2114
 532, 1655, 1654, 1707, 1708, 2062, 2063, 2116, 2115
 533, 1654, 1653, 1706, 1707, 2063, 2064, 2117, 2116
 534, 1653, 1652, 1705, 1706, 2064, 2065, 2118, 2117
 535, 1652, 1651, 1704, 1705, 2065, 2066, 2119, 2118
 536, 1651, 1650, 1703, 1704, 2066, 2067, 2120, 2119
 537, 1650, 1649, 1702, 1703, 2067, 2068, 2121, 2120
 538, 1649, 1648, 1701, 1702, 2068, 2069, 2122, 2121
 539, 1648, 1647, 1700, 1701, 2069, 2070, 2123, 2122
 540, 1647,  404,   15, 1700, 2070,  462,   19, 2123
 541,   10, 1752, 1805,  349,   22, 2071, 2124,  523
 542, 1752, 1751, 1804, 1805, 2071, 2072, 2125, 2124
 543, 1751, 1750, 1803, 1804, 2072, 2073, 2126, 2125
 544, 1750, 1749, 1802, 1803, 2073, 2074, 2127, 2126
 545, 1749, 1748, 1801, 1802, 2074, 2075, 2128, 2127
 546, 1748, 1747, 1800, 1801, 2075, 2076, 2129, 2128
 547, 1747, 1746, 1799, 1800, 2076, 2077, 2130, 2129
 548, 1746, 1745, 1798, 1799, 2077, 2078, 2131, 2130
 549, 1745, 1744, 1797, 1798, 2078, 2079, 2132, 2131
 550, 1744, 1743, 1796, 1797, 2079, 2080, 2133, 2132
 551, 1743, 1742, 1795, 1796, 2080, 2081, 2134, 2133
 552, 1742, 1741, 1794, 1795, 2081, 2082, 2135, 2134
 553, 1741, 1740, 1793, 1794, 2082, 2083, 2136, 2135
 554, 1740, 1739, 1792, 1793, 2083, 2084, 2137, 2136
 555, 1739, 1738, 1791, 1792, 2084, 2085, 2138, 2137
 556, 1738, 1737, 1790, 1791, 2085, 2086, 2139, 2138
 557, 1737, 1736, 1789, 1790, 2086, 2087, 2140, 2139
 558, 1736, 1735, 1788, 1789, 2087, 2088, 2141, 2140
 559, 1735, 1734, 1787, 1788, 2088, 2089, 2142, 2141
 560, 1734, 1733, 1786, 1787, 2089, 2090, 2143, 2142
 561, 1733, 1732, 1785, 1786, 2090, 2091, 2144, 2143
 562, 1732, 1731, 1784, 1785, 2091, 2092, 2145, 2144
 563, 1731, 1730, 1783, 1784, 2092, 2093, 2146, 2145
 564, 1730, 1729, 1782, 1783, 2093, 2094, 2147, 2146
 565, 1729, 1728, 1781, 1782, 2094, 2095, 2148, 2147
 566, 1728, 1727, 1780, 1781, 2095, 2096, 2149, 2148
 567, 1727, 1726, 1779, 1780, 2096, 2097, 2150, 2149
 568, 1726, 1725, 1778, 1779, 2097, 2098, 2151, 2150
 569, 1725, 1724, 1777, 1778, 2098, 2099, 2152, 2151
 570, 1724, 1723, 1776, 1777, 2099, 2100, 2153, 2152
 571, 1723, 1722, 1775, 1776, 2100, 2101, 2154, 2153
 572, 1722, 1721, 1774, 1775, 2101, 2102, 2155, 2154
 573, 1721, 1720, 1773, 1774, 2102, 2103, 2156, 2155
 574, 1720, 1719, 1772, 1773, 2103, 2104, 2157, 2156
 575, 1719, 1718, 1771, 1772, 2104, 2105, 2158, 2157
 576, 1718, 1717, 1770, 1771, 2105, 2106, 2159, 2158
 577, 1717, 1716, 1769, 1770, 2106, 2107, 2160, 2159
 578, 1716, 1715, 1768, 1769, 2107, 2108, 2161, 2160
 579, 1715, 1714, 1767, 1768, 2108, 2109, 2162, 2161
 580, 1714, 1713, 1766, 1767, 2109, 2110, 2163, 2162
 581, 1713, 1712, 1765, 1766, 2110, 2111, 2164, 2163
 582, 1712, 1711, 1764, 1765, 2111, 2112, 2165, 2164
 583, 1711, 1710, 1763, 1764, 2112, 2113, 2166, 2165
 584, 1710, 1709, 1762, 1763, 2113, 2114, 2167, 2166
 585, 1709, 1708, 1761, 1762, 2114, 2115, 2168, 2167
 586, 1708, 1707, 1760, 1761, 2115, 2116, 2169, 2168
 587, 1707, 1706, 1759, 1760, 2116, 2117, 2170, 2169
 588, 1706, 1705, 1758, 1759, 2117, 2118, 2171, 2170
 589, 1705, 1704, 1757, 1758, 2118, 2119, 2172, 2171
 590, 1704, 1703, 1756, 1757, 2119, 2120, 2173, 2172
 591, 1703, 1702, 1755, 1756, 2120, 2121, 2174, 2173
 592, 1702, 1701, 1754, 1755, 2121, 2122, 2175, 2174
 593, 1701, 1700, 1753, 1754, 2122, 2123, 2176, 2175
 594, 1700,   15,  405, 1753, 2123,   19,  463, 2176
 595,  349, 1805, 1858,  348,  523, 2124, 2177,  522
 596, 1805, 1804, 1857, 1858, 2124, 2125, 2178, 2177
 597, 1804, 1803, 1856, 1857, 2125, 2126, 2179, 2178
 598, 1803, 1802, 1855, 1856, 2126, 2127, 2180, 2179
 599, 1802, 1801, 1854, 1855, 2127, 2128, 2181, 2180
 600, 1801, 1800, 1853, 1854, 2128, 2129, 2182, 2181
 601, 1800, 1799, 1852, 1853, 2129, 2130, 2183, 2182
 602, 1799, 1798, 1851, 1852, 2130, 2131, 2184, 2183
 603, 1798, 1797, 1850, 1851, 2131, 2132, 2185, 2184
 604, 1797, 1796, 1849, 1850, 2132, 2133, 2186, 2185
 605, 1796, 1795, 1848, 1849, 2133, 2134, 2187, 2186
 606, 1795, 1794, 1847, 1848, 2134, 2135, 2188, 2187
 607, 1794, 1793, 1846, 1847, 2135, 2136, 2189, 2188
 608, 1793, 1792, 1845, 1846, 2136, 2137, 2190, 2189
 609, 1792, 1791, 1844, 1845, 2137, 2138, 2191, 2190
 610, 1791, 1790, 1843, 1844, 2138, 2139, 2192, 2191
 611, 1790, 1789, 1842, 1843, 2139, 2140, 2193, 2192
 612, 1789, 1788, 1841, 1842, 2140, 2141, 2194, 2193
 613, 1788, 1787, 1840, 1841, 2141, 2142, 2195, 2194
 614, 1787, 1786, 1839, 1840, 2142, 2143, 2196, 2195
 615, 1786, 1785, 1838, 1839, 2143, 2144, 2197, 2196
 616, 1785, 1784, 1837, 1838, 2144, 2145, 2198, 2197
 617, 1784, 1783, 1836, 1837, 2145, 2146, 2199, 2198
 618, 1783, 1782, 1835, 1836, 2146, 2147, 2200, 2199
 619, 1782, 1781, 1834, 1835, 2147, 2148, 2201, 2200
 620, 1781, 1780, 1833, 1834, 2148, 2149, 2202, 2201
 621, 1780, 1779, 1832, 1833, 2149, 2150, 2203, 2202
 622, 1779, 1778, 1831, 1832, 2150, 2151, 2204, 2203
 623, 1778, 1777, 1830, 1831, 2151, 2152, 2205, 2204
 624, 1777, 1776, 1829, 1830, 2152, 2153, 2206, 2205
 625, 1776, 1775, 1828, 1829, 2153, 2154, 2207, 2206
 626, 1775, 1774, 1827, 1828, 2154, 2155, 2208, 2207
 627, 1774, 1773, 1826, 1827, 2155, 2156, 2209, 2208
 628, 1773, 1772, 1825, 1826, 2156, 2157, 2210, 2209
 629, 1772, 1771, 1824, 1825, 2157, 2158, 2211, 2210
 630, 1771, 1770, 1823, 1824, 2158, 2159, 2212, 2211
 631, 1770, 1769, 1822, 1823, 2159, 2160, 2213, 2212
 632, 1769, 1768, 1821, 1822, 2160, 2161, 2214, 2213
 633, 1768, 1767, 1820, 1821, 2161, 2162, 2215, 2214
 634, 1767, 1766, 1819, 1820, 2162, 2163, 2216, 2215
 635, 1766, 1765, 1818, 1819, 2163, 2164, 2217, 2216
 636, 1765, 1764, 1817, 1818, 2164, 2165, 2218, 2217
 637, 1764, 1763, 1816, 1817, 2165, 2166, 2219, 2218
 638, 1763, 1762, 1815, 1816, 2166, 2167, 2220, 2219
 639, 1762, 1761, 1814, 1815, 2167, 2168, 2221, 2220
 640, 1761, 1760, 1813, 1814, 2168, 2169, 2222, 2221
 641, 1760, 1759, 1812, 1813, 2169, 2170, 2223, 2222
 642, 1759, 1758, 1811, 1812, 2170, 2171, 2224, 2223
 643, 1758, 1757, 1810, 1811, 2171, 2172, 2225, 2224
 644, 1757, 1756, 1809, 1810, 2172, 2173, 2226, 2225
 645, 1756, 1755, 1808, 1809, 2173, 2174, 2227, 2226
 646, 1755, 1754, 1807, 1808, 2174, 2175, 2228, 2227
 647, 1754, 1753, 1806, 1807, 2175, 2176, 2229, 2228
 648, 1753,  405,  406, 1806, 2176,  463,  464, 2229
 649,  348, 1858, 1911,  347,  522, 2177, 2230,  521
 650, 1858, 1857, 1910, 1911, 2177, 2178, 2231, 2230
 651, 1857, 1856, 1909, 1910, 2178, 2179, 2232, 2231
 652, 1856, 1855, 1908, 1909, 2179, 2180, 2233, 2232
 653, 1855, 1854, 1907, 1908, 2180, 2181, 2234, 2233
 654, 1854, 1853, 1906, 1907, 2181, 2182, 2235, 2234
 655, 1853, 1852, 1905, 1906, 2182, 2183, 2236, 2235
 656, 1852, 1851, 1904, 1905, 2183, 2184, 2237, 2236
 657, 1851, 1850, 1903, 1904, 2184, 2185, 2238, 2237
 658, 1850, 1849, 1902, 1903, 2185, 2186, 2239, 2238
 659, 1849, 1848, 1901, 1902, 2186, 2187, 2240, 2239
 660, 1848, 1847, 1900, 1901, 2187, 2188, 2241, 2240
 661, 1847, 1846, 1899, 1900, 2188, 2189, 2242, 2241
 662, 1846, 1845, 1898, 1899, 2189, 2190, 2243, 2242
 663, 1845, 1844, 1897, 1898, 2190, 2191, 2244, 2243
 664, 1844, 1843, 1896, 1897, 2191, 2192, 2245, 2244
 665, 1843, 1842, 1895, 1896, 2192, 2193, 2246, 2245
 666, 1842, 1841, 1894, 1895, 2193, 2194, 2247, 2246
 667, 1841, 1840, 1893, 1894, 2194, 2195, 2248, 2247
 668, 1840, 1839, 1892, 1893, 2195, 2196, 2249, 2248
 669, 1839, 1838, 1891, 1892, 2196, 2197, 2250, 2249
 670, 1838, 1837, 1890, 1891, 2197, 2198, 2251, 2250
 671, 1837, 1836, 1889, 1890, 2198, 2199, 2252, 2251
 672, 1836, 1835, 1888, 1889, 2199, 2200, 2253, 2252
 673, 1835, 1834, 1887, 1888, 2200, 2201, 2254, 2253
 674, 1834, 1833, 1886, 1887, 2201, 2202, 2255, 2254
 675, 1833, 1832, 1885, 1886, 2202, 2203, 2256, 2255
 676, 1832, 1831, 1884, 1885, 2203, 2204, 2257, 2256
 677, 1831, 1830, 1883, 1884, 2204, 2205, 2258, 2257
 678, 1830, 1829, 1882, 1883, 2205, 2206, 2259, 2258
 679, 1829, 1828, 1881, 1882, 2206, 2207, 2260, 2259
 680, 1828, 1827, 1880, 1881, 2207, 2208, 2261, 2260
 681, 1827, 1826, 1879, 1880, 2208, 2209, 2262, 2261
 682, 1826, 1825, 1878, 1879, 2209, 2210, 2263, 2262
 683, 1825, 1824, 1877, 1878, 2210, 2211, 2264, 2263
 684, 1824, 1823, 1876, 1877, 2211, 2212, 2265, 2264
 685, 1823, 1822, 1875, 1876, 2212, 2213, 2266, 2265
 686, 1822, 1821, 1874, 1875, 2213, 2214, 2267, 2266
 687, 1821, 1820, 1873, 1874, 2214, 2215, 2268, 2267
 688, 1820, 1819, 1872, 1873, 2215, 2216, 2269, 2268
 689, 1819, 1818, 1871, 1872, 2216, 2217, 2270, 2269
 690, 1818, 1817, 1870, 1871, 2217, 2218, 2271, 2270
 691, 1817, 1816, 1869, 1870, 2218, 2219, 2272, 2271
 692, 1816, 1815, 1868, 1869, 2219, 2220, 2273, 2272
 693, 1815, 1814, 1867, 1868, 2220, 2221, 2274, 2273
 694, 1814, 1813, 1866, 1867, 2221, 2222, 2275, 2274
 695, 1813, 1812, 1865, 1866, 2222, 2223, 2276, 2275
 696, 1812, 1811, 1864, 1865, 2223, 2224, 2277, 2276
 697, 1811, 1810, 1863, 1864, 2224, 2225, 2278, 2277
 698, 1810, 1809, 1862, 1863, 2225, 2226, 2279, 2278
 699, 1809, 1808, 1861, 1862, 2226, 2227, 2280, 2279
 700, 1808, 1807, 1860, 1861, 2227, 2228, 2281, 2280
 701, 1807, 1806, 1859, 1860, 2228, 2229, 2282, 2281
 702, 1806,  406,  407, 1859, 2229,  464,  465, 2282
 703,  347, 1911, 1964,   11,  521, 2230, 2283,   23
 704, 1911, 1910, 1963, 1964, 2230, 2231, 2284, 2283
 705, 1910, 1909, 1962, 1963, 2231, 2232, 2285, 2284
 706, 1909, 1908, 1961, 1962, 2232, 2233, 2286, 2285
 707, 1908, 1907, 1960, 1961, 2233, 2234, 2287, 2286
 708, 1907, 1906, 1959, 1960, 2234, 2235, 2288, 2287
 709, 1906, 1905, 1958, 1959, 2235, 2236, 2289, 2288
 710, 1905, 1904, 1957, 1958, 2236, 2237, 2290, 2289
 711, 1904, 1903, 1956, 1957, 2237, 2238, 2291, 2290
 712, 1903, 1902, 1955, 1956, 2238, 2239, 2292, 2291
 713, 1902, 1901, 1954, 1955, 2239, 2240, 2293, 2292
 714, 1901, 1900, 1953, 1954, 2240, 2241, 2294, 2293
 715, 1900, 1899, 1952, 1953, 2241, 2242, 2295, 2294
 716, 1899, 1898, 1951, 1952, 2242, 2243, 2296, 2295
 717, 1898, 1897, 1950, 1951, 2243, 2244, 2297, 2296
 718, 1897, 1896, 1949, 1950, 2244, 2245, 2298, 2297
 719, 1896, 1895, 1948, 1949, 2245, 2246, 2299, 2298
 720, 1895, 1894, 1947, 1948, 2246, 2247, 2300, 2299
 721, 1894, 1893, 1946, 1947, 2247, 2248, 2301, 2300
 722, 1893, 1892, 1945, 1946, 2248, 2249, 2302, 2301
 723, 1892, 1891, 1944, 1945, 2249, 2250, 2303, 2302
 724, 1891, 1890, 1943, 1944, 2250, 2251, 2304, 2303
 725, 1890, 1889, 1942, 1943, 2251, 2252, 2305, 2304
 726, 1889, 1888, 1941, 1942, 2252, 2253, 2306, 2305
 727, 1888, 1887, 1940, 1941, 2253, 2254, 2307, 2306
 728, 1887, 1886, 1939, 1940, 2254, 2255, 2308, 2307
 729, 1886, 1885, 1938, 1939, 2255, 2256, 2309, 2308
 730, 1885, 1884, 1937, 1938, 2256, 2257, 2310, 2309
 731, 1884, 1883, 1936, 1937, 2257, 2258, 2311, 2310
 732, 1883, 1882, 1935, 1936, 2258, 2259, 2312, 2311
 733, 1882, 1881, 1934, 1935, 2259, 2260, 2313, 2312
 734, 1881, 1880, 1933, 1934, 2260, 2261, 2314, 2313
 735, 1880, 1879, 1932, 1933, 2261, 2262, 2315, 2314
 736, 1879, 1878, 1931, 1932, 2262, 2263, 2316, 2315
 737, 1878, 1877, 1930, 1931, 2263, 2264, 2317, 2316
 738, 1877, 1876, 1929, 1930, 2264, 2265, 2318, 2317
 739, 1876, 1875, 1928, 1929, 2265, 2266, 2319, 2318
 740, 1875, 1874, 1927, 1928, 2266, 2267, 2320, 2319
 741, 1874, 1873, 1926, 1927, 2267, 2268, 2321, 2320
 742, 1873, 1872, 1925, 1926, 2268, 2269, 2322, 2321
 743, 1872, 1871, 1924, 1925, 2269, 2270, 2323, 2322
 744, 1871, 1870, 1923, 1924, 2270, 2271, 2324, 2323
 745, 1870, 1869, 1922, 1923, 2271, 2272, 2325, 2324
 746, 1869, 1868, 1921, 1922, 2272, 2273, 2326, 2325
 747, 1868, 1867, 1920, 1921, 2273, 2274, 2327, 2326
 748, 1867, 1866, 1919, 1920, 2274, 2275, 2328, 2327
 749, 1866, 1865, 1918, 1919, 2275, 2276, 2329, 2328
 750, 1865, 1864, 1917, 1918, 2276, 2277, 2330, 2329
 751, 1864, 1863, 1916, 1917, 2277, 2278, 2331, 2330
 752, 1863, 1862, 1915, 1916, 2278, 2279, 2332, 2331
 753, 1862, 1861, 1914, 1915, 2279, 2280, 2333, 2332
 754, 1861, 1860, 1913, 1914, 2280, 2281, 2334, 2333
 755, 1860, 1859, 1912, 1913, 2281, 2282, 2335, 2334
 756, 1859,  407,   16, 1912, 2282,  465,   20, 2335
 757,   11, 1964, 2017,  350,   23, 2283, 2336,  524
 758, 1964, 1963, 2016, 2017, 2283, 2284, 2337, 2336
 759, 1963, 1962, 2015, 2016, 2284, 2285, 2338, 2337
 760, 1962, 1961, 2014, 2015, 2285, 2286, 2339, 2338
 761, 1961, 1960, 2013, 2014, 2286, 2287, 2340, 2339
 762, 1960, 1959, 2012, 2013, 2287, 2288, 2341, 2340
 763, 1959, 1958, 2011, 2012, 2288, 2289, 2342, 2341
 764, 1958, 1957, 2010, 2011, 2289, 2290, 2343, 2342
 765, 1957, 1956, 2009, 2010, 2290, 2291, 2344, 2343
 766, 1956, 1955, 2008, 2009, 2291, 2292, 2345, 2344
 767, 1955, 1954, 2007, 2008, 2292, 2293, 2346, 2345
 768, 1954, 1953, 2006, 2007, 2293, 2294, 2347, 2346
 769, 1953, 1952, 2005, 2006, 2294, 2295, 2348, 2347
 770, 1952, 1951, 2004, 2005, 2295, 2296, 2349, 2348
 771, 1951, 1950, 2003, 2004, 2296, 2297, 2350, 2349
 772, 1950, 1949, 2002, 2003, 2297, 2298, 2351, 2350
 773, 1949, 1948, 2001, 2002, 2298, 2299, 2352, 2351
 774, 1948, 1947, 2000, 2001, 2299, 2300, 2353, 2352
 775, 1947, 1946, 1999, 2000, 2300, 2301, 2354, 2353
 776, 1946, 1945, 1998, 1999, 2301, 2302, 2355, 2354
 777, 1945, 1944, 1997, 1998, 2302, 2303, 2356, 2355
 778, 1944, 1943, 1996, 1997, 2303, 2304, 2357, 2356
 779, 1943, 1942, 1995, 1996, 2304, 2305, 2358, 2357
 780, 1942, 1941, 1994, 1995, 2305, 2306, 2359, 2358
 781, 1941, 1940, 1993, 1994, 2306, 2307, 2360, 2359
 782, 1940, 1939, 1992, 1993, 2307, 2308, 2361, 2360
 783, 1939, 1938, 1991, 1992, 2308, 2309, 2362, 2361
 784, 1938, 1937, 1990, 1991, 2309, 2310, 2363, 2362
 785, 1937, 1936, 1989, 1990, 2310, 2311, 2364, 2363
 786, 1936, 1935, 1988, 1989, 2311, 2312, 2365, 2364
 787, 1935, 1934, 1987, 1988, 2312, 2313, 2366, 2365
 788, 1934, 1933, 1986, 1987, 2313, 2314, 2367, 2366
 789, 1933, 1932, 1985, 1986, 2314, 2315, 2368, 2367
 790, 1932, 1931, 1984, 1985, 2315, 2316, 2369, 2368
 791, 1931, 1930, 1983, 1984, 2316, 2317, 2370, 2369
 792, 1930, 1929, 1982, 1983, 2317, 2318, 2371, 2370
 793, 1929, 1928, 1981, 1982, 2318, 2319, 2372, 2371
 794, 1928, 1927, 1980, 1981, 2319, 2320, 2373, 2372
 795, 1927, 1926, 1979, 1980, 2320, 2321, 2374, 2373
 796, 1926, 1925, 1978, 1979, 2321, 2322, 2375, 2374
 797, 1925, 1924, 1977, 1978, 2322, 2323, 2376, 2375
 798, 1924, 1923, 1976, 1977, 2323, 2324, 2377, 2376
 799, 1923, 1922, 1975, 1976, 2324, 2325, 2378, 2377
 800, 1922, 1921, 1974, 1975, 2325, 2326, 2379, 2378
 801, 1921, 1920, 1973, 1974, 2326, 2327, 2380, 2379
 802, 1920, 1919, 1972, 1973, 2327, 2328, 2381, 2380
 803, 1919, 1918, 1971, 1972, 2328, 2329, 2382, 2381
 804, 1918, 1917, 1970, 1971, 2329, 2330, 2383, 2382
 805, 1917, 1916, 1969, 1970, 2330, 2331, 2384, 2383
 806, 1916, 1915, 1968, 1969, 2331, 2332, 2385, 2384
 807, 1915, 1914, 1967, 1968, 2332, 2333, 2386, 2385
 808, 1914, 1913, 1966, 1967, 2333, 2334, 2387, 2386
 809, 1913, 1912, 1965, 1966, 2334, 2335, 2388, 2387
 810, 1912,   16,  408, 1965, 2335,   20,  466, 2388
 811,  350, 2017,  403,   12,  524, 2336,  519,   24
 812, 2017, 2016,  402,  403, 2336, 2337,  518,  519
 813, 2016, 2015,  401,  402, 2337, 2338,  517,  518
 814, 2015, 2014,  400,  401, 2338, 2339,  516,  517
 815, 2014, 2013,  399,  400, 2339, 2340,  515,  516
 816, 2013, 2012,  398,  399, 2340, 2341,  514,  515
 817, 2012, 2011,  397,  398, 2341, 2342,  513,  514
 818, 2011, 2010,  396,  397, 2342, 2343,  512,  513
 819, 2010, 2009,  395,  396, 2343, 2344,  511,  512
 820, 2009, 2008,  394,  395, 2344, 2345,  510,  511
 821, 2008, 2007,  393,  394, 2345, 2346,  509,  510
 822, 2007, 2006,  392,  393, 2346, 2347,  508,  509
 823, 2006, 2005,  391,  392, 2347, 2348,  507,  508
 824, 2005, 2004,  390,  391, 2348, 2349,  506,  507
 825, 2004, 2003,  389,  390, 2349, 2350,  505,  506
 826, 2003, 2002,  388,  389, 2350, 2351,  504,  505
 827, 2002, 2001,  387,  388, 2351, 2352,  503,  504
 828, 2001, 2000,  386,  387, 2352, 2353,  502,  503
 829, 2000, 1999,  385,  386, 2353, 2354,  501,  502
 830, 1999, 1998,  384,  385, 2354, 2355,  500,  501
 831, 1998, 1997,  383,  384, 2355, 2356,  499,  500
 832, 1997, 1996,  382,  383, 2356, 2357,  498,  499
 833, 1996, 1995,  381,  382, 2357, 2358,  497,  498
 834, 1995, 1994,  380,  381, 2358, 2359,  496,  497
 835, 1994, 1993,  379,  380, 2359, 2360,  495,  496
 836, 1993, 1992,  378,  379, 2360, 2361,  494,  495
 837, 1992, 1991,  377,  378, 2361, 2362,  493,  494
 838, 1991, 1990,  376,  377, 2362, 2363,  492,  493
 839, 1990, 1989,  375,  376, 2363, 2364,  491,  492
 840, 1989, 1988,  374,  375, 2364, 2365,  490,  491
 841, 1988, 1987,  373,  374, 2365, 2366,  489,  490
 842, 1987, 1986,  372,  373, 2366, 2367,  488,  489
 843, 1986, 1985,  371,  372, 2367, 2368,  487,  488
 844, 1985, 1984,  370,  371, 2368, 2369,  486,  487
 845, 1984, 1983,  369,  370, 2369, 2370,  485,  486
 846, 1983, 1982,  368,  369, 2370, 2371,  484,  485
 847, 1982, 1981,  367,  368, 2371, 2372,  483,  484
 848, 1981, 1980,  366,  367, 2372, 2373,  482,  483
 849, 1980, 1979,  365,  366, 2373, 2374,  481,  482
 850, 1979, 1978,  364,  365, 2374, 2375,  480,  481
 851, 1978, 1977,  363,  364, 2375, 2376,  479,  480
 852, 1977, 1976,  362,  363, 2376, 2377,  478,  479
 853, 1976, 1975,  361,  362, 2377, 2378,  477,  478
 854, 1975, 1974,  360,  361, 2378, 2379,  476,  477
 855, 1974, 1973,  359,  360, 2379, 2380,  475,  476
 856, 1973, 1972,  358,  359, 2380, 2381,  474,  475
 857, 1972, 1971,  357,  358, 2381, 2382,  473,  474
 858, 1971, 1970,  356,  357, 2382, 2383,  472,  473
 859, 1970, 1969,  355,  356, 2383, 2384,  471,  472
 860, 1969, 1968,  354,  355, 2384, 2385,  470,  471
 861, 1968, 1967,  353,  354, 2385, 2386,  469,  470
 862, 1967, 1966,  352,  353, 2386, 2387,  468,  469
 863, 1966, 1965,  351,  352, 2387, 2388,  467,  468
 864, 1965,  408,   13,  351, 2388,  466,   21,  467
 865,   30,  618,  525,   25,   33,  685,  684,   32
 866,  618,  617,  526,  525,  685,  686,  683,  684
 867,  617,  616,  527,  526,  686,  687,  682,  683
 868,  616,  615,  528,  527,  687,  688,  681,  682
 869,  615,  614,  529,  528,  688,  689,  680,  681
 870,  614,  613,  530,  529,  689,  690,  679,  680
 871,  613,  612,  531,  530,  690,  691,  678,  679
 872,  612,  611,  532,  531,  691,  692,  677,  678
 873,  611,  610,  533,  532,  692,  693,  676,  677
 874,  610,  609,  534,  533,  693,  694,  675,  676
 875,  609,  608,  535,  534,  694,  695,  674,  675
 876,  608,  607,  536,  535,  695,  696,  673,  674
 877,  607,  606,  537,  536,  696,  697,  672,  673
 878,  606,  605,  538,  537,  697,  698,  671,  672
 879,  605,  604,  539,  538,  698,  699,  670,  671
 880,  604,  603,  540,  539,  699,  700,  669,  670
 881,  603,  602,  541,  540,  700,  701,  668,  669
 882,  602,  601,  542,  541,  701,  702,  667,  668
 883,  601,  600,  543,  542,  702,  703,  666,  667
 884,  600,  599,  544,  543,  703,  704,  665,  666
 885,  599,  598,  545,  544,  704,  705,  664,  665
 886,  598,  597,  546,  545,  705,  706,  663,  664
 887,  597,  596,  547,  546,  706,  707,  662,  663
 888,  596,  595,  548,  547,  707,  708,  661,  662
 889,  595,  594,  549,  548,  708,  709,  660,  661
 890,  594,  593,  550,  549,  709,  710,  659,  660
 891,  593,  592,  551,  550,  710,  711,  658,  659
 892,  592,  591,  552,  551,  711,  712,  657,  658
 893,  591,   28,   26,  552,  712,   34,   31,  657
 894,   28,  656,  553,   26,   34,  713,  788,   31
 895,  656,  655,  554,  553,  713,  714,  787,  788
 896,  655,  654,  555,  554,  714,  715,  786,  787
 897,  654,  653,  556,  555,  715,  716,  785,  786
 898,  653,  652,  557,  556,  716,  717,  784,  785
 899,  652,  651,  558,  557,  717,  718,  783,  784
 900,  651,  650,  559,  558,  718,  719,  782,  783
 901,  650,  649,  560,  559,  719,  720,  781,  782
 902,  649,  648,  561,  560,  720,  721,  780,  781
 903,  648,  647,  562,  561,  721,  722,  779,  780
 904,  647,  646,  563,  562,  722,  723,  778,  779
 905,  646,  645,  564,  563,  723,  724,  777,  778
 906,  645,  644,  565,  564,  724,  725,  776,  777
 907,  644,  643,  566,  565,  725,  726,  775,  776
 908,  643,  642,  567,  566,  726,  727,  774,  775
 909,  642,  641,  568,  567,  727,  728,  773,  774
 910,  641,  640,  569,  568,  728,  729,  772,  773
 911,  640,  639,  570,  569,  729,  730,  771,  772
 912,  639,  638,  571,  570,  730,  731,  770,  771
 913,  638,  637,  572,  571,  731,  732,  769,  770
 914,  637,  636,  573,  572,  732,  733,  768,  769
 915,  636,  635,  574,  573,  733,  734,  767,  768
 916,  635,  634,  575,  574,  734,  735,  766,  767
 917,  634,  633,  576,  575,  735,  736,  765,  766
 918,  633,  632,  577,  576,  736,  737,  764,  765
 919,  632,  631,  578,  577,  737,  738,  763,  764
 920,  631,  630,  579,  578,  738,  739,  762,  763
 921,  630,  629,  580,  579,  739,  740,  761,  762
 922,  629,  628,  581,  580,  740,  741,  760,  761
 923,  628,  627,  582,  581,  741,  742,  759,  760
 924,  627,  626,  583,  582,  742,  743,  758,  759
 925,  626,  625,  584,  583,  743,  744,  757,  758
 926,  625,  624,  585,  584,  744,  745,  756,  757
 927,  624,  623,  586,  585,  745,  746,  755,  756
 928,  623,  622,  587,  586,  746,  747,  754,  755
 929,  622,  621,  588,  587,  747,  748,  753,  754
 930,  621,  620,  589,  588,  748,  749,  752,  753
 931,  620,  619,  590,  589,  749,  750,  751,  752
 932,  619,   29,   27,  590,  750,   35,   36,  751
 933,   42,  882,  789,   37,   45,  949,  948,   44
 934,  882,  881,  790,  789,  949,  950,  947,  948
 935,  881,  880,  791,  790,  950,  951,  946,  947
 936,  880,  879,  792,  791,  951,  952,  945,  946
 937,  879,  878,  793,  792,  952,  953,  944,  945
 938,  878,  877,  794,  793,  953,  954,  943,  944
 939,  877,  876,  795,  794,  954,  955,  942,  943
 940,  876,  875,  796,  795,  955,  956,  941,  942
 941,  875,  874,  797,  796,  956,  957,  940,  941
 942,  874,  873,  798,  797,  957,  958,  939,  940
 943,  873,  872,  799,  798,  958,  959,  938,  939
 944,  872,  871,  800,  799,  959,  960,  937,  938
 945,  871,  870,  801,  800,  960,  961,  936,  937
 946,  870,  869,  802,  801,  961,  962,  935,  936
 947,  869,  868,  803,  802,  962,  963,  934,  935
 948,  868,  867,  804,  803,  963,  964,  933,  934
 949,  867,  866,  805,  804,  964,  965,  932,  933
 950,  866,  865,  806,  805,  965,  966,  931,  932
 951,  865,  864,  807,  806,  966,  967,  930,  931
 952,  864,  863,  808,  807,  967,  968,  929,  930
 953,  863,  862,  809,  808,  968,  969,  928,  929
 954,  862,  861,  810,  809,  969,  970,  927,  928
 955,  861,  860,  811,  810,  970,  971,  926,  927
 956,  860,  859,  812,  811,  971,  972,  925,  926
 957,  859,  858,  813,  812,  972,  973,  924,  925
 958,  858,  857,  814,  813,  973,  974,  923,  924
 959,  857,  856,  815,  814,  974,  975,  922,  923
 960,  856,  855,  816,  815,  975,  976,  921,  922
 961,  855,   40,   38,  816,  976,   46,   43,  921
 962,   40,  920,  817,   38,   46,  977, 1052,   43
 963,  920,  919,  818,  817,  977,  978, 1051, 1052
 964,  919,  918,  819,  818,  978,  979, 1050, 1051
 965,  918,  917,  820,  819,  979,  980, 1049, 1050
 966,  917,  916,  821,  820,  980,  981, 1048, 1049
 967,  916,  915,  822,  821,  981,  982, 1047, 1048
 968,  915,  914,  823,  822,  982,  983, 1046, 1047
 969,  914,  913,  824,  823,  983,  984, 1045, 1046
 970,  913,  912,  825,  824,  984,  985, 1044, 1045
 971,  912,  911,  826,  825,  985,  986, 1043, 1044
 972,  911,  910,  827,  826,  986,  987, 1042, 1043
 973,  910,  909,  828,  827,  987,  988, 1041, 1042
 974,  909,  908,  829,  828,  988,  989, 1040, 1041
 975,  908,  907,  830,  829,  989,  990, 1039, 1040
 976,  907,  906,  831,  830,  990,  991, 1038, 1039
 977,  906,  905,  832,  831,  991,  992, 1037, 1038
 978,  905,  904,  833,  832,  992,  993, 1036, 1037
 979,  904,  903,  834,  833,  993,  994, 1035, 1036
 980,  903,  902,  835,  834,  994,  995, 1034, 1035
 981,  902,  901,  836,  835,  995,  996, 1033, 1034
 982,  901,  900,  837,  836,  996,  997, 1032, 1033
 983,  900,  899,  838,  837,  997,  998, 1031, 1032
 984,  899,  898,  839,  838,  998,  999, 1030, 1031
 985,  898,  897,  840,  839,  999, 1000, 1029, 1030
 986,  897,  896,  841,  840, 1000, 1001, 1028, 1029
 987,  896,  895,  842,  841, 1001, 1002, 1027, 1028
 988,  895,  894,  843,  842, 1002, 1003, 1026, 1027
 989,  894,  893,  844,  843, 1003, 1004, 1025, 1026
 990,  893,  892,  845,  844, 1004, 1005, 1024, 1025
 991,  892,  891,  846,  845, 1005, 1006, 1023, 1024
 992,  891,  890,  847,  846, 1006, 1007, 1022, 1023
 993,  890,  889,  848,  847, 1007, 1008, 1021, 1022
 994,  889,  888,  849,  848, 1008, 1009, 1020, 1021
 995,  888,  887,  850,  849, 1009, 1010, 1019, 1020
 996,  887,  886,  851,  850, 1010, 1011, 1018, 1019
 997,  886,  885,  852,  851, 1011, 1012, 1017, 1018
 998,  885,  884,  853,  852, 1012, 1013, 1016, 1017
 999,  884,  883,  854,  853, 1013, 1014, 1015, 1016
1000,  883,   41,   39,  854, 1014,   47,   48, 1015
1001,  182, 2559, 2569,    5, 1646, 4455, 4465,  238
1002,  183,  184, 2494, 2495, 1645, 1644, 4390, 4391
1003, 2570, 2397, 2597, 2745, 4466, 4293, 4493, 4641
1004, 2610, 2600, 2580, 2606, 4506, 4496, 4476, 4502
1005, 2692, 2632, 2580, 2600, 4588, 4528, 4476, 4496
1006, 1074, 2632, 2692, 1075,  942, 4528, 4588,  941
1007, 2693, 2490, 1077, 1076, 4589, 4386,  939,  940
1008, 1078, 1077, 2490, 2489,  938,  939, 4386, 4385
1009, 2405, 2554, 2487, 2489, 4301, 4450, 4383, 4385
1010, 2497,  191,  192, 2407, 4393, 1637, 1636, 4303
1011,  191, 2497, 2498,  190, 1637, 4393, 4394, 1638
1012,  190, 2498, 2406,  189, 1638, 4394, 4302, 1639
1013,  189, 2406, 2499,  188, 1639, 4302, 4395, 1640
1014, 2732, 2395, 2600, 2610, 4628, 4291, 4496, 4506
1015, 2395, 2732, 2742, 2568, 4291, 4628, 4638, 4464
1016, 1053,   23,   11, 2448, 2802,  524,  350, 4344
1017,    5, 2447, 2448,   11,  238, 4343, 4344,  350
1018, 2611, 2566, 2525, 2533, 4507, 4462, 4421, 4429
1019, 1059, 1058, 2524, 2507, 2792, 2791, 4420, 4403
1020, 2507, 2509, 1060, 1059, 4403, 4405, 2788, 2792
1021, 1062, 1061, 2508, 2510, 2794, 2793, 4404, 4406
1022, 2508, 2590, 2545, 2510, 4404, 4486, 4441, 4406
1023, 2559, 2390, 2581, 2571, 4455, 4286, 4477, 4467
1024, 2593, 2581, 2595, 2399, 4489, 4477, 4491, 4295
1025, 2571, 2722, 2569, 2559, 4467, 4618, 4465, 4455
1026, 2566, 1056, 1055, 2525, 4462, 2800, 2798, 4421
1027, 2450, 2403, 1064, 1063, 4346, 4299, 2795, 2789
1028, 2510, 2545, 2607, 2450, 4406, 4441, 4503, 4346
1029, 2391, 2728, 2631, 2636, 4287, 4624, 4527, 4532
1030, 2528, 2617, 2653, 2595, 4424, 4513, 4549, 4491
1031, 1065, 2512, 2511, 1066, 2790, 4408, 4407, 2796
1032,   51, 1067, 2484, 1068,   44, 2797, 4380,  948
1033, 1069, 2491, 2486, 1070,  947, 4387, 4382,  946
1034, 2486, 2555, 2402, 2485, 4382, 4451, 4298, 4381
1035, 2553, 1072, 1071, 2485, 4449,  944,  945, 4381
1036, 1070, 2486, 2485, 1071,  946, 4382, 4381,  945
1037, 2623, 2393, 2622, 2645, 4519, 4289, 4518, 4541
1038, 2644, 2622, 2755, 2599, 4540, 4518, 4651, 4495
1039, 2404, 2680, 2576, 2555, 4300, 4576, 4472, 4451
1040, 1072, 2553, 2394, 1073,  944, 4449, 4290,  943
1041, 2487, 2488, 1080, 1079, 4383, 4384,  936,  937
1042, 1083, 1082, 2408, 2696,  933,  934, 4304, 4592
1043, 2701, 2700,  200,  201, 4597, 4596, 1628, 1627
1044,  199,  200, 2700, 2699, 1629, 1628, 4596, 4595
1045, 1092, 1091, 2718, 2717,  924,  925, 4614, 4613
1046, 1095, 1094, 2715, 2714,  921,  922, 4611, 4610
1047,  207, 2714, 2715,  206, 1621, 4610, 4611, 1622
1048,   52, 2713, 2712, 1096,   43, 4609, 4608, 1052
1049,  209, 2712, 2713,  208, 1619, 4608, 4609, 1620
1050, 2712,  209,  210, 2711, 4608, 1619, 1618, 4607
1051, 1098, 2710, 2709, 1099, 1050, 4606, 4605, 1049
1052, 2689,  214, 1102, 1101, 4585, 1614, 1046, 1047
1053,  214,  215, 1103, 1102, 1614, 1613, 1045, 1046
1054,  215,  216, 1104, 1103, 1613, 1612, 1044, 1045
1055,  217,  218, 1106, 1105, 1611, 1610, 1042, 1043
1056, 1107, 1106,  218, 2683, 1041, 1042, 1610, 4579
1057, 2503,  223,  224, 2410, 4399, 1605, 1604, 4306
1058,  226, 2560, 2501,  225, 1602, 4456, 4397, 1603
1059, 2584, 2604, 2630, 2414, 4480, 4500, 4526, 4310
1060, 2414, 2630, 2534, 2615, 4310, 4526, 4430, 4511
1061, 2427, 2614, 2626, 2578, 4323, 4510, 4522, 4474
1062, 2643, 2428, 2608, 2624, 4539, 4324, 4504, 4520
1063, 2440, 2650, 2633, 2655, 4336, 4546, 4529, 4551
1064, 2468, 2538, 2549, 2481, 4364, 4434, 4445, 4377
1065, 2469, 2478, 1131, 1130, 4365, 4374, 1017, 1018
1066, 2481, 2549, 2550, 2477, 4377, 4445, 4446, 4373
1067, 2478, 2472, 1132, 1131, 4374, 4368, 1016, 1017
1068,   53, 1133, 2474, 1134,   48, 1015, 4370, 2783
1069, 1134, 2474, 2517, 1135, 2783, 4370, 4413, 2776
1070, 2506, 2488, 2487, 2407, 4402, 4384, 4383, 4303
1071, 2407,  192,  193, 2506, 4303, 1636, 1635, 4402
1072, 1082, 1081, 2463, 2408,  934,  935, 4359, 4304
1073, 2697, 1084, 1083, 2696, 4593,  932,  933, 4592
1074, 2688, 2691, 2409, 2473, 4584, 4587, 4305, 4369
1075, 1113, 1112, 2479, 2464, 1035, 1036, 4375, 4360
1076, 1112, 1111, 2466, 2479, 1036, 1037, 4362, 4375
1077, 2560, 2587, 2543, 2501, 4456, 4483, 4439, 4397
1078, 2464, 2475, 1114, 1113, 4360, 4371, 1034, 1035
1079, 2475, 2470, 1115, 1114, 4371, 4366, 1033, 1034
1080, 2584, 2414, 2601, 2602, 4480, 4310, 4497, 4498
1081, 2584, 2537, 2587, 2604, 4480, 4433, 4483, 4500
1082, 2470, 2531, 1116, 1115, 4366, 4427, 1032, 1033
1083, 2531, 2482, 1117, 1116, 4427, 4378, 1031, 1032
1084, 2417, 2685, 2416, 2583, 4313, 4581, 4312, 4479
1085, 2602, 2601, 2583, 2532, 4498, 4497, 4479, 4428
1086, 2482, 2416, 1118, 1117, 4378, 4312, 1030, 1031
1087, 1120, 1119, 2547, 2483, 1028, 1029, 4443, 4379
1088, 2547, 2572, 2551, 2483, 4443, 4468, 4447, 4379
1089, 1123, 1122, 2471, 2480, 1025, 1026, 4367, 4376
1090, 2476, 2546, 2428, 2471, 4372, 4442, 4324, 4367
1091, 2428, 2643, 2480, 2471, 4324, 4539, 4376, 4367
1092, 2648, 2465, 1125, 1124, 4544, 4361, 1023, 1024
1093, 2650, 2439, 2465, 2633, 4546, 4335, 4361, 4529
1094, 2474, 2472, 2548, 2517, 4370, 4368, 4444, 4413
1095, 2515, 1138, 1137, 2523, 4411, 2778, 2784, 4419
1096, 2515, 2523, 2726, 2563, 4411, 4419, 4622, 4459
1097, 2731, 2649, 2656, 2441, 4627, 4545, 4552, 4337
1098, 2659, 2435, 2665, 2673, 4555, 4331, 4561, 4569
1099, 2669, 2760, 2665, 2652, 4565, 4656, 4561, 4548
1100, 2657, 2757, 2674, 2677, 4553, 4653, 4570, 4573
1101, 2642, 2603, 2752, 2756, 4538, 4499, 4648, 4652
1102,  231,  232, 2493, 2500, 1597, 1596, 4389, 4396
1103, 2724, 2567, 2500, 2493, 4620, 4463, 4396, 4389
1104, 2492,  228,  229, 2496, 4388, 1600, 1599, 4392
1105, 2412,  227,  228, 2492, 4308, 1601, 1600, 4388
1106, 2563, 2609, 2519, 2515, 4459, 4505, 4415, 4411
1107, 1138, 2515, 2519, 1139, 2778, 4411, 4415, 2785
1108, 2686, 2522, 2444, 2564, 4582, 4418, 4340, 4460
1109, 2609, 2444, 2522, 2519, 4505, 4340, 4418, 4415
1110, 2665, 2753, 2678, 2673, 4561, 4649, 4574, 4569
1111, 2675, 2431, 2647, 2654, 4571, 4327, 4543, 4550
1112, 2425, 2666, 2625, 2612, 4321, 4562, 4521, 4508
1113, 2592, 2752, 2419, 2734, 4488, 4648, 4315, 4630
1114, 2504,  233,  234, 2561, 4400, 1595, 1594, 4457
1115, 2493, 2504, 2552, 2724, 4389, 4400, 4448, 4620
1116, 2502,  230,  231, 2500, 4398, 1598, 1597, 4396
1117, 1143, 1142, 2516, 2520, 2781, 2786, 4412, 4416
1118, 2721, 2521, 2520, 2682, 4617, 4417, 4416, 4578
1119, 2451, 2433, 2557, 2535, 4347, 4329, 4453, 4431
1120, 2582, 2535, 2628, 2594, 4478, 4431, 4524, 4490
1121, 2458, 2461, 1152, 1151, 4354, 4357, 2773, 2772
1122, 1160, 2456,   16,   20, 2765, 4352,  408,  466
1123, 2454, 1157, 1156, 2452, 4350, 2763, 2762, 4348
1124, 2449, 2423, 2539, 2541, 4345, 4319, 4435, 4437
1125, 2561,  234,    6, 2664, 4457, 1594,  292, 4560
1126, 2638, 2634, 2574, 2639, 4534, 4530, 4470, 4535
1127, 2638, 2746, 2618, 2640, 4534, 4642, 4514, 4536
1128, 2629, 2647, 2618, 2613, 4525, 4543, 4514, 4509
1129, 1145, 1144, 2521, 2518, 2787, 2782, 4417, 4414
1130, 2423, 2449, 1154, 1153, 4319, 4345, 2774, 2768
1131, 2541, 2454, 2452, 2449, 4437, 4350, 4348, 4345
1132, 2540, 2503, 2466, 2467, 4436, 4399, 4362, 4363
1133,  204,  205, 2716, 2717, 1624, 1623, 4612, 4613
1134, 2408, 2706, 2705, 2696, 4304, 4602, 4601, 4592
1135, 2570, 2729, 2494, 2558, 4466, 4625, 4390, 4454
1136, 2728, 2391, 2505, 2495, 4624, 4287, 4401, 4391
1137, 2621, 2396, 2597, 2397, 4517, 4292, 4493, 4293
1138,  187, 2635, 2708,  186, 1641, 4531, 4604, 1642
1139, 2728, 2729, 2744, 2631, 4624, 4625, 4640, 4527
1140, 2599, 2402, 2555, 2576, 4495, 4298, 4451, 4472
1141, 1062, 2510, 2450, 1063, 2794, 4406, 4346, 2789
1142, 2415, 2527, 2577, 2651, 4311, 4423, 4473, 4547
1143, 2496, 2415, 2585, 2534, 4392, 4311, 4481, 4430
1144, 2750, 2603, 2642, 2619, 4646, 4499, 4538, 4515
1145, 2637, 2620, 2598, 2627, 4533, 4516, 4494, 4523
1146, 2459, 2458, 1151, 1150, 4355, 4354, 2772, 2767
1147, 2421, 2530, 2424, 2639, 4317, 4426, 4320, 4535
1148, 2629, 2613, 2720, 2438, 4525, 4509, 4616, 4334
1149, 2433, 2460, 2556, 2557, 4329, 4356, 4452, 4453
1150, 1147, 1146, 2462, 2460, 2770, 2769, 4358, 4356
1151, 2542, 2453, 2454, 2541, 4438, 4349, 4350, 4437
1152, 2455, 1159, 1158, 2453, 4351, 2764, 2761, 4349
1153, 2433, 2451, 1149, 1148, 4329, 4347, 2771, 2766
1154, 2535, 2582, 2459, 2451, 4431, 4478, 4355, 4347
1155, 2734, 2588, 2612, 2592, 4630, 4484, 4508, 4488
1156, 2757, 2657, 2619, 2642, 4653, 4553, 4515, 4538
1157, 2735, 2578, 2626, 2608, 4631, 4474, 4522, 4504
1158, 2429, 2646, 2624, 2608, 4325, 4542, 4520, 4504
1159, 2426, 2592, 2612, 2625, 4322, 4488, 4508, 4521
1160, 2656, 2668, 2678, 2441, 4552, 4564, 4574, 4337
1161, 2659, 2655, 2662, 2435, 4555, 4551, 4558, 4331
1162, 2629, 2437, 2654, 2647, 4525, 4333, 4550, 4543
1163,   54, 1145, 2518, 2513, 1167, 2787, 4414, 4409
1164, 2671, 2730, 2721, 2682, 4567, 4626, 4617, 4578
1165, 2609, 2616, 2649, 2444, 4505, 4512, 4545, 4340
1166, 2468, 2439, 2650, 2538, 4364, 4335, 4546, 4434
1167, 2751, 2676, 2671, 2679, 4647, 4572, 4567, 4575
1168, 2516, 1142, 1141, 2686, 4412, 2786, 2780, 4582
1169, 1129, 1128, 2481, 2477, 1019, 1020, 4377, 4373
1170, 2664, 2421, 2639, 2574, 4560, 4317, 4535, 4470
1171, 2448, 1054,   49, 1053, 4344, 2799, 1201, 2802
1172, 2525, 1055, 1054, 2448, 4421, 2798, 2799, 4344
1173, 1056, 2566, 2524, 1057, 2800, 4462, 4420, 2801
1174, 1057, 2524, 1058,   50, 2801, 4420, 2791, 1190
1175, 1061, 1060, 2509, 2508, 2793, 2788, 4405, 4404
1176, 2512, 1065, 1064, 2403, 4408, 2790, 2795, 4299
1177, 2484, 1067, 1066, 2511, 4380, 2797, 2796, 4407
1178, 2491, 1069, 1068, 2484, 4387,  947,  948, 4380
1179, 2394, 2632, 1074, 1073, 4290, 4528,  942,  943
1180, 2692, 2693, 1076, 1075, 4588, 4589,  940,  941
1181, 2704, 2697, 2696, 2705, 4600, 4593, 4592, 4601
1182, 2697, 2704, 2703, 2698, 4593, 4600, 4599, 4594
1183, 1088, 2700, 2701, 1089,  928, 4596, 4597,  927
1184, 2713, 2714,  207,  208, 4609, 4610, 1621, 1620
1185, 2710,  211,  212, 2709, 4606, 1617, 1616, 4605
1186,  216,  217, 1105, 1104, 1612, 1611, 1043, 1044
1187, 2688, 2473, 1108, 2687, 4584, 4369, 1040, 4583
1188, 2473, 2409, 1109, 1108, 4369, 4305, 1039, 1040
1189, 1109, 2409, 2467, 1110, 1039, 4305, 4363, 1038
1190, 1121, 1120, 2483, 2476, 1027, 1028, 4379, 4372
1191, 1122, 1121, 2476, 2471, 1026, 1027, 4372, 4367
1192, 2480, 2648, 1124, 1123, 4376, 4544, 1024, 1025
1193, 2465, 2439, 1126, 1125, 4361, 4335, 1022, 1023
1194, 2439, 2468, 1127, 1126, 4335, 4364, 1021, 1022
1195, 1130, 1129, 2477, 2469, 1018, 1019, 4373, 4365
1196, 1133, 1132, 2472, 2474, 1015, 1016, 4368, 4370
1197, 2522, 1140, 1139, 2519, 4418, 2779, 2785, 4415
1198, 1146,   54, 2513, 2462, 2769, 1167, 4409, 4358
1199, 1148, 1147, 2460, 2433, 2766, 2770, 4356, 4329
1200, 2451, 2459, 1150, 1149, 4347, 4355, 2767, 2771
1201, 1153, 1152, 2461, 2423, 2768, 2773, 4357, 4319
1202, 2452, 1156,   55, 1155, 4348, 2762, 1161, 2775
1203, 2695, 2446,   16, 2456, 4591, 4342,  408, 4352
1204, 2559,  182, 2505, 2390, 4455, 1646, 4401, 4286
1205, 2708, 2558,  185,  186, 4604, 4454, 1643, 1642
1206, 2635,  187,  188, 2499, 4531, 1641, 1640, 4395
1207,  195, 2706, 2707,  194, 1633, 4602, 4603, 1634
1208,  198,  199, 1086, 2703, 1630, 1629,  930, 4599
1209,  201,  202, 2702, 2701, 1627, 1626, 4598, 4597
1210,  202,  203, 2718, 2702, 1626, 1625, 4614, 4598
1211, 2716,  205,  206, 2715, 4612, 1623, 1622, 4611
1212,  213, 2690, 2709,  212, 1615, 4586, 4605, 1616
1213, 2690,  213,  214, 2689, 4586, 1615, 1614, 4585
1214,  219, 2687, 2683,  218, 1609, 4583, 4579, 1610
1215,  221,  222, 2540, 2691, 1607, 1606, 4436, 4587
1216, 2503, 2410, 2589, 2466, 4399, 4306, 4485, 4362
1217,  225, 2501, 2410,  224, 1603, 4397, 4306, 1604
1218, 2560,  226,  227, 2412, 4456, 1602, 1601, 4308
1219,  230, 2502, 2496,  229, 1598, 4398, 4392, 1599
1220, 2493,  232,  233, 2504, 4389, 1596, 1595, 4400
1221, 2694,    6,   16, 2446, 4590,  292,  408, 4342
1222, 2533, 2525, 2448, 2447, 4429, 4421, 4344, 4343
1223, 1155, 1154, 2449, 2452, 2775, 2774, 4345, 4348
1224, 2591, 2403, 2450, 2565, 4487, 4299, 4346, 4461
1225, 2741, 2565, 2450, 2607, 4637, 4461, 4346, 4503
1226, 2456, 1160, 1159, 2455, 4352, 2765, 2764, 4351
1227, 2526, 2455, 2453, 2542, 4422, 4351, 4349, 4438
1228, 2453, 1158, 1157, 2454, 4349, 2761, 2763, 4350
1229, 2422, 2542, 2541, 2539, 4318, 4438, 4437, 4435
1230, 2526, 2695, 2456, 2455, 4422, 4591, 4352, 4351
1231, 2421, 2694, 2457, 2530, 4317, 4590, 4353, 4426
1232, 2739, 2575, 2727, 2594, 4635, 4471, 4623, 4490
1233, 2461, 2458, 2389, 2544, 4357, 4354, 4285, 4440
1234, 2582, 2389, 2458, 2459, 4478, 4285, 4354, 4355
1235, 2720, 2556, 2460, 2462, 4616, 4452, 4356, 4358
1236, 2544, 2539, 2423, 2461, 4440, 4435, 4319, 4357
1237, 2438, 2720, 2462, 2513, 4334, 4616, 4358, 4409
1238, 1081, 1080, 2488, 2463,  935,  936, 4384, 4359
1239, 2479, 2543, 2411, 2464, 4375, 4439, 4307, 4360
1240, 2434, 2633, 2465, 2648, 4330, 4529, 4361, 4544
1241, 2467, 2466, 1111, 1110, 4363, 4362, 1037, 1038
1242, 2468, 2481, 1128, 1127, 4364, 4377, 1020, 1021
1243, 2477, 2550, 2445, 2469, 4373, 4446, 4341, 4365
1244, 2470, 2475, 2537, 2723, 4366, 4371, 4433, 4619
1245, 2514, 1136, 1135, 2517, 4410, 2777, 2776, 4413
1246, 2517, 2548, 2725, 2514, 4413, 4444, 4621, 4410
1247, 1108, 1107, 2683, 2687, 1040, 1041, 4579, 4583
1248, 2411, 2537, 2475, 2464, 4307, 4433, 4371, 4360
1249, 2483, 2551, 2546, 2476, 4379, 4447, 4442, 4372
1250, 2472, 2478, 2719, 2548, 4368, 4374, 4615, 4444
1251, 2501, 2543, 2589, 2410, 4397, 4439, 4485, 4306
1252, 2672, 2549, 2538, 2663, 4568, 4445, 4434, 4559
1253, 2532, 2583, 2416, 2482, 4428, 4479, 4312, 4378
1254, 2532, 2482, 2531, 2413, 4428, 4378, 4427, 4309
1255, 2491, 2484, 2511, 2404, 4387, 4380, 4407, 4300
1256, 2402, 2573, 2553, 2485, 4298, 4469, 4449, 4381
1257, 2404, 2555, 2486, 2491, 4300, 4451, 4382, 4387
1258, 2407, 2487, 2554, 2497, 4303, 4383, 4450, 4393
1259, 2489, 2487, 1079, 1078, 4385, 4383,  937,  938
1260, 2707, 2463, 2488, 2506, 4603, 4359, 4384, 4402
1261, 2568, 2405, 2489, 2490, 4464, 4301, 4385, 4386
1262, 2742, 2536, 2405, 2568, 4638, 4432, 4301, 4464
1263, 2568, 2490, 2693, 2395, 4464, 4386, 4589, 4291
1264, 2492, 2630, 2604, 2412, 4388, 4526, 4500, 4308
1265, 2630, 2492, 2496, 2534, 4526, 4388, 4392, 4430
1266, 2558, 2494,  184,  185, 4454, 4390, 1644, 1643
1267,  182,  183, 2495, 2505, 1646, 1645, 4391, 4401
1268, 2527, 2415, 2496, 2502, 4423, 4311, 4392, 4398
1269, 2554, 2405, 2498, 2497, 4450, 4301, 4394, 4393
1270, 2405, 2536, 2406, 2498, 4301, 4432, 4302, 4394
1271, 2635, 2499, 2586, 2621, 4531, 4395, 4482, 4517
1272, 2567, 2527, 2502, 2500, 4463, 4423, 4398, 4396
1273, 2466, 2589, 2543, 2479, 4362, 4485, 4439, 4375
1274, 2540,  222,  223, 2503, 4436, 1606, 1605, 4399
1275, 2552, 2504, 2561, 2420, 4448, 4400, 4457, 4316
1276, 2391, 2528, 2390, 2505, 4287, 4424, 4286, 4401
1277, 2398, 2529, 2509, 2507, 4294, 4425, 4405, 4403
1278, 2566, 2398, 2507, 2524, 4462, 4294, 4403, 4420
1279, 2509, 2399, 2590, 2508, 4405, 4295, 4486, 4404
1280, 2593, 2399, 2509, 2529, 4489, 4295, 4405, 4425
1281, 2680, 2404, 2511, 2512, 4576, 4300, 4407, 4408
1282, 2403, 2591, 2680, 2512, 4299, 4487, 4576, 4408
1283, 2562, 2438, 2513, 2518, 4458, 4334, 4409, 4414
1284, 2523, 1137, 1136, 2514, 4419, 2784, 2777, 4410
1285, 2564, 2731, 2679, 2442, 4460, 4627, 4575, 4338
1286, 2437, 2629, 2438, 2562, 4333, 4525, 4334, 4458
1287, 1144, 1143, 2520, 2521, 2782, 2781, 4416, 4417
1288, 2682, 2520, 2516, 2442, 4578, 4416, 4412, 4338
1289, 2721, 2562, 2518, 2521, 4617, 4458, 4414, 4417
1290, 2686, 1141, 1140, 2522, 4582, 2780, 2779, 4418
1291, 2736, 2446, 2695, 2526, 4632, 4342, 4591, 4422
1292, 2418, 2585, 2415, 2651, 4314, 4481, 4311, 4547
1293, 2567, 2733, 2577, 2527, 4463, 4629, 4473, 4423
1294, 2529, 2611, 2722, 2593, 4425, 4507, 4618, 4489
1295, 2594, 2727, 2389, 2582, 4490, 4623, 4285, 4478
1296, 2470, 2723, 2413, 2531, 4366, 4619, 4309, 4427
1297, 2641, 2601, 2414, 2615, 4537, 4497, 4310, 4511
1298, 2628, 2535, 2557, 2579, 4524, 4431, 4453, 4475
1299, 2536, 2586, 2499, 2406, 4432, 4482, 4395, 4302
1300, 2543, 2587, 2537, 2411, 4439, 4483, 4433, 4307
1301, 2602, 2723, 2537, 2584, 4498, 4619, 4433, 4480
1302, 2440, 2663, 2538, 2650, 4336, 4559, 4434, 4546
1303, 2605, 2422, 2539, 2544, 4501, 4318, 4435, 4440
1304, 2736, 2727, 2575, 2457, 4632, 4623, 4471, 4353
1305, 2607, 2545, 2590, 2400, 4503, 4441, 4486, 4296
1306, 2608, 2428, 2546, 2735, 4504, 4324, 4442, 4631
1307, 2578, 2735, 2546, 2551, 4474, 4631, 4442, 4447
1308, 1119, 1118, 2416, 2547, 1029, 1030, 4312, 4443
1309, 2726, 2725, 2548, 2719, 4622, 4621, 4444, 4615
1310, 2550, 2549, 2672, 2443, 4446, 4445, 4568, 4339
1311, 2443, 2563, 2445, 2550, 4339, 4459, 4341, 4446
1312, 2578, 2551, 2572, 2427, 4474, 4447, 4468, 4323
1313, 2632, 2394, 2553, 2580, 4528, 4290, 4449, 4476
1314, 2393, 2580, 2553, 2573, 4289, 4476, 4449, 4469
1315, 2556, 2720, 2613, 2432, 4452, 4616, 4509, 4328
1316, 2432, 2579, 2557, 2556, 4328, 4475, 4453, 4452
1317, 2570, 2558, 2708, 2397, 4466, 4454, 4604, 4293
1318, 2533, 2447,    5, 2569, 4429, 4343,  238, 4465
1319, 2664, 2574, 2420, 2561, 4560, 4470, 4316, 4457
1320, 2437, 2562, 2721, 2730, 4333, 4458, 4617, 4626
1321, 2719, 2445, 2563, 2726, 4615, 4341, 4459, 4622
1322, 2516, 2686, 2564, 2442, 4412, 4582, 4460, 4338
1323, 2564, 2444, 2649, 2731, 4460, 4340, 4545, 4627
1324, 2680, 2591, 2401, 2576, 4576, 4487, 4297, 4472
1325, 2529, 2398, 2566, 2611, 4425, 4294, 4462, 4507
1326, 2733, 2567, 2724, 2419, 4629, 4463, 4620, 4315
1327, 2611, 2533, 2569, 2722, 4507, 4429, 4465, 4618
1328, 2392, 2645, 2622, 2644, 4288, 4541, 4518, 4540
1329, 2722, 2571, 2581, 2593, 4618, 4467, 4477, 4489
1330, 2685, 2598, 2427, 2572, 4581, 4494, 4323, 4468
1331, 2627, 2598, 2685, 2417, 4523, 4494, 4581, 4313
1332, 2573, 2402, 2599, 2755, 4469, 4298, 4495, 4651
1333, 2634, 2588, 2420, 2574, 4530, 4484, 4316, 4470
1334, 2727, 2605, 2544, 2389, 4623, 4501, 4440, 4285
1335, 2739, 2530, 2457, 2575, 4635, 4426, 4353, 4471
1336, 2565, 2747, 2401, 2591, 4461, 4643, 4297, 4487
1337, 2596, 2740, 2628, 2579, 4492, 4636, 4524, 4475
1338, 2400, 2590, 2399, 2595, 4296, 4486, 4295, 4491
1339, 2595, 2581, 2390, 2528, 4491, 4477, 4286, 4424
1340, 2422, 2605, 2727, 2736, 4318, 4501, 4623, 4632
1341, 2641, 2417, 2583, 2601, 4537, 4313, 4479, 4497
1342, 2572, 2547, 2416, 2685, 4468, 4443, 4312, 4581
1343, 2534, 2585, 2641, 2615, 4430, 4481, 4537, 4511
1344, 2604, 2587, 2560, 2412, 4500, 4483, 4456, 4308
1345, 2425, 2612, 2588, 2634, 4321, 4508, 4484, 4530
1346, 2588, 2734, 2552, 2420, 4484, 4630, 4448, 4316
1347, 2752, 2603, 2733, 2419, 4648, 4499, 4629, 4315
1348, 2740, 2739, 2594, 2628, 4636, 4635, 4490, 4524
1349, 2746, 2424, 2740, 2596, 4642, 4320, 4636, 4492
1350, 2737, 2400, 2595, 2653, 4633, 4296, 4491, 4549
1351, 2634, 2638, 2640, 2425, 4530, 4534, 4536, 4321
1352, 2749, 2596, 2579, 2432, 4645, 4492, 4475, 4328
1353, 2597, 2396, 2606, 2623, 4493, 4292, 4502, 4519
1354, 2598, 2620, 2614, 2427, 4494, 4516, 4510, 4323
1355, 2681, 2644, 2599, 2748, 4577, 4540, 4495, 4644
1356, 2401, 2748, 2599, 2576, 4297, 4644, 4495, 4472
1357, 2637, 2418, 2750, 2619, 4533, 4314, 4646, 4515
1358, 2426, 2756, 2752, 2592, 4322, 4652, 4648, 4488
1359, 2623, 2606, 2580, 2393, 4519, 4502, 4476, 4289
1360, 2631, 2658, 2681, 2636, 4527, 4554, 4577, 4532
1361, 2619, 2657, 2626, 2614, 4515, 4553, 4522, 4510
1362, 2616, 2609, 2563, 2443, 4512, 4505, 4459, 4339
1363, 2738, 2610, 2606, 2396, 4634, 4506, 4502, 4292
1364, 2666, 2667, 2674, 2625, 4562, 4563, 4570, 4521
1365, 2618, 2749, 2432, 2613, 4514, 4645, 4328, 4509
1366, 2620, 2637, 2619, 2614, 4516, 4533, 4515, 4510
1367, 2585, 2627, 2417, 2641, 4481, 4523, 4313, 4537
1368, 2656, 2743, 2672, 2663, 4552, 4639, 4568, 4559
1369, 2681, 2653, 2617, 2636, 4577, 4549, 4513, 4532
1370, 2636, 2617, 2528, 2391, 4532, 4513, 4424, 4287
1371, 2431, 2640, 2618, 2647, 4327, 4536, 4514, 4543
1372, 2627, 2585, 2418, 2637, 4523, 4481, 4314, 4533
1373, 2586, 2738, 2396, 2621, 4482, 4634, 4292, 4517
1374, 2573, 2755, 2622, 2393, 4469, 4651, 4518, 4289
1375, 2623, 2645, 2745, 2597, 4519, 4541, 4641, 4493
1376, 2643, 2624, 2662, 2434, 4539, 4520, 4558, 4330
1377, 2757, 2426, 2625, 2674, 4653, 4322, 4521, 4570
1378, 2431, 2666, 2425, 2640, 4327, 4562, 4321, 4536
1379, 2608, 2626, 2684, 2429, 4504, 4522, 4580, 4325
1380, 2392, 2658, 2631, 2744, 4288, 4554, 4527, 4640
1381, 2708, 2635, 2621, 2397, 4604, 4531, 4517, 4293
1382, 2746, 2638, 2639, 2424, 4642, 4534, 4535, 4320
1383, 2530, 2739, 2740, 2424, 4426, 4635, 4636, 4320
1384, 2596, 2749, 2618, 2746, 4492, 4645, 4514, 4642
1385, 2750, 2418, 2651, 2577, 4646, 4314, 4547, 4473
1386, 2434, 2648, 2480, 2643, 4330, 4544, 4376, 4539
1387, 2665, 2435, 2646, 2652, 4561, 4331, 4542, 4548
1388, 2666, 2431, 2675, 2667, 4562, 4327, 4571, 4563
1389, 2440, 2655, 2659, 2668, 4336, 4551, 4555, 4564
1390, 2655, 2633, 2434, 2662, 4551, 4529, 4330, 4558
1391, 2624, 2646, 2435, 2662, 4520, 4542, 4331, 4558
1392, 2660, 2652, 2646, 2429, 4556, 4548, 4542, 4325
1393, 2741, 2607, 2400, 2737, 4637, 4503, 4296, 4633
1394, 2565, 2741, 2737, 2747, 4461, 4637, 4633, 4643
1395, 2669, 2759, 2675, 2670, 4565, 4655, 4571, 4566
1396, 2675, 2654, 2661, 2670, 4571, 4550, 4557, 4566
1397, 2440, 2668, 2656, 2663, 4336, 4564, 4552, 4559
1398, 2429, 2684, 2758, 2660, 4325, 4580, 4654, 4556
1399, 2392, 2644, 2681, 2658, 4288, 4540, 4577, 4554
1400, 2684, 2677, 2674, 2758, 4580, 4573, 4570, 4654
1401, 2730, 2671, 2676, 2661, 4626, 4567, 4572, 4557
1402, 2437, 2730, 2661, 2654, 4333, 4626, 4557, 4550
1403, 2694, 2421, 2664,    6, 4590, 4317, 4560,  292
1404, 2760, 2669, 2670, 2436, 4656, 4565, 4566, 4332
1405, 2667, 2675, 2759, 2430, 4563, 4571, 4655, 4326
1406, 2660, 2759, 2669, 2652, 4556, 4655, 4565, 4548
1407, 2676, 2436, 2670, 2661, 4572, 4332, 4566, 4557
1408, 2679, 2671, 2682, 2442, 4575, 4567, 4578, 4338
1409, 2443, 2672, 2743, 2616, 4339, 4568, 4639, 4512
1410, 2673, 2678, 2668, 2659, 4569, 4574, 4564, 4555
1411, 2426, 2757, 2642, 2756, 4322, 4653, 4538, 4652
1412, 2758, 2674, 2667, 2430, 4654, 4570, 4563, 4326
1413, 2626, 2657, 2677, 2684, 4522, 4553, 4573, 4580
1414, 2753, 2751, 2441, 2678, 4649, 4647, 4337, 4574
1415, 2441, 2751, 2679, 2731, 4337, 4647, 4575, 4627
1416, 2747, 2737, 2653, 2754, 4643, 4633, 4549, 4650
1417, 2748, 2754, 2653, 2681, 4644, 4650, 4549, 4577
1418, 2688, 2687,  219,  220, 4584, 4583, 1609, 1608
1419,  220,  221, 2691, 2688, 1608, 1607, 4587, 4584
1420, 1101, 1100, 2690, 2689, 1047, 1048, 4586, 4585
1421, 2691, 2540, 2467, 2409, 4587, 4436, 4363, 4305
1422, 2693, 2692, 2600, 2395, 4589, 4588, 4496, 4291
1423, 2694, 2446, 2736, 2457, 4590, 4342, 4632, 4353
1424, 2698, 1085, 1084, 2697, 4594,  931,  932, 4593
1425, 2698, 2703, 1086, 1085, 4594, 4599,  930,  931
1426,  198, 2703, 2704,  197, 1630, 4599, 4600, 1631
1427, 1086,  199, 2699, 1087,  930, 1629, 4595,  929
1428, 2699, 2700, 1088, 1087, 4595, 4596,  928,  929
1429, 1090, 1089, 2701, 2702,  926,  927, 4597, 4598
1430,  197, 2704, 2705,  196, 1631, 4600, 4601, 1632
1431, 2706,  195,  196, 2705, 4602, 1633, 1632, 4601
1432,  194, 2707, 2506,  193, 1634, 4603, 4402, 1635
1433, 2690, 1100, 1099, 2709, 4586, 1048, 1049, 4605
1434,  211, 2710, 2711,  210, 1617, 4606, 4607, 1618
1435, 2710, 1098, 1097, 2711, 4606, 1050, 1051, 4607
1436, 2711, 1097, 1096, 2712, 4607, 1051, 1052, 4608
1437, 2714, 2713,   52, 1095, 4610, 4609,   43,  921
1438, 2716, 2715, 1094, 1093, 4612, 4611,  922,  923
1439, 1092, 2717, 2716, 1093,  924, 4613, 4612,  923
1440, 2718,  203,  204, 2717, 4614, 1625, 1624, 4613
1441, 2702, 2718, 1091, 1090, 4598, 4614,  925,  926
1442, 2478, 2469, 2445, 2719, 4374, 4365, 4341, 4615
1443, 2734, 2419, 2724, 2552, 4630, 4315, 4620, 4448
1444, 2463, 2707, 2706, 2408, 4359, 4603, 4602, 4304
1445, 2726, 2523, 2514, 2725, 4622, 4419, 4410, 4621
1446, 2729, 2728, 2495, 2494, 4625, 4624, 4391, 4390
1447, 2610, 2738, 2742, 2732, 4506, 4634, 4638, 4628
1448, 2603, 2750, 2577, 2733, 4499, 4646, 4473, 4629
1449, 2526, 2542, 2422, 2736, 4422, 4438, 4318, 4632
1450, 2738, 2586, 2536, 2742, 4634, 4482, 4432, 4638
1451, 2532, 2413, 2723, 2602, 4428, 4309, 4619, 4498
1452, 2616, 2743, 2656, 2649, 4512, 4639, 4552, 4545
1453, 2645, 2392, 2744, 2745, 4541, 4288, 4640, 4641
1454, 2745, 2744, 2729, 2570, 4641, 4640, 4625, 4466
1455, 2436, 2676, 2751, 2753, 4332, 4572, 4647, 4649
1456, 2748, 2401, 2747, 2754, 4644, 4297, 4643, 4650
1457, 2430, 2759, 2660, 2758, 4326, 4655, 4556, 4654
1458, 2436, 2753, 2665, 2760, 4332, 4649, 4561, 4656
1459, 1646, 4455, 4465,  238,  239, 2973, 2983,    7
1460, 1645, 1644, 4390, 4391,  240,  241, 2908, 2909
1461, 4466, 4293, 4493, 4641, 2984, 2811, 3011, 3159
1462, 4506, 4496, 4476, 4502, 3024, 3014, 2994, 3020
1463, 4588, 4528, 4476, 4496, 3106, 3046, 2994, 3014
1464,  942, 4528, 4588,  941,  795, 3046, 3106,  796
1465, 4589, 4386,  939,  940, 3107, 2904,  798,  797
1466,  938,  939, 4386, 4385,  799,  798, 2904, 2903
1467, 4301, 4450, 4383, 4385, 2819, 2968, 2901, 2903
1468, 4393, 1637, 1636, 4303, 2911,  248,  249, 2821
1469, 1637, 4393, 4394, 1638,  248, 2911, 2912,  247
1470, 1638, 4394, 4302, 1639,  247, 2912, 2820,  246
1471, 1639, 4302, 4395, 1640,  246, 2820, 2913,  245
1472, 4628, 4291, 4496, 4506, 3146, 2809, 3014, 3024
1473, 4291, 4628, 4638, 4464, 2809, 3146, 3156, 2982
1474, 2802,  524,  350, 4344, 1206,   24,   12, 2862
1475,  238, 4343, 4344,  350,    7, 2861, 2862,   12
1476, 4507, 4462, 4421, 4429, 3025, 2980, 2939, 2947
1477, 2792, 2791, 4420, 4403, 1192, 1191, 2938, 2921
1478, 4403, 4405, 2788, 2792, 2921, 2923, 1193, 1192
1479, 2794, 2793, 4404, 4406, 1195, 1194, 2922, 2924
1480, 4404, 4486, 4441, 4406, 2922, 3004, 2959, 2924
1481, 4455, 4286, 4477, 4467, 2973, 2804, 2995, 2985
1482, 4489, 4477, 4491, 4295, 3007, 2995, 3009, 2813
1483, 4467, 4618, 4465, 4455, 2985, 3136, 2983, 2973
1484, 4462, 2800, 2798, 4421, 2980, 1204, 1203, 2939
1485, 4346, 4299, 2795, 2789, 2864, 2817, 1197, 1196
1486, 4406, 4441, 4503, 4346, 2924, 2959, 3021, 2864
1487, 4287, 4624, 4527, 4532, 2805, 3142, 3045, 3050
1488, 4424, 4513, 4549, 4491, 2942, 3031, 3067, 3009
1489, 2790, 4408, 4407, 2796, 1198, 2926, 2925, 1199
1490,   44, 2797, 4380,  948,   37, 1200, 2898,  789
1491,  947, 4387, 4382,  946,  790, 2905, 2900,  791
1492, 4382, 4451, 4298, 4381, 2900, 2969, 2816, 2899
1493, 4449,  944,  945, 4381, 2967,  793,  792, 2899
1494,  946, 4382, 4381,  945,  791, 2900, 2899,  792
1495, 4519, 4289, 4518, 4541, 3037, 2807, 3036, 3059
1496, 4540, 4518, 4651, 4495, 3058, 3036, 3169, 3013
1497, 4300, 4576, 4472, 4451, 2818, 3094, 2990, 2969
1498,  944, 4449, 4290,  943,  793, 2967, 2808,  794
1499, 4383, 4384,  936,  937, 2901, 2902,  801,  800
1500,  933,  934, 4304, 4592,  804,  803, 2822, 3110
1501, 4597, 4596, 1628, 1627, 3115, 3114,  257,  258
1502, 1629, 1628, 4596, 4595,  256,  257, 3114, 3113
1503,  924,  925, 4614, 4613,  813,  812, 3132, 3131
1504,  921,  922, 4611, 4610,  816,  815, 3129, 3128
1505, 1621, 4610, 4611, 1622,  264, 3128, 3129,  263
1506,   43, 4609, 4608, 1052,   38, 3127, 3126,  817
1507, 1619, 4608, 4609, 1620,  266, 3126, 3127,  265
1508, 4608, 1619, 1618, 4607, 3126,  266,  267, 3125
1509, 1050, 4606, 4605, 1049,  819, 3124, 3123,  820
1510, 4585, 1614, 1046, 1047, 3103,  271,  823,  822
1511, 1614, 1613, 1045, 1046,  271,  272,  824,  823
1512, 1613, 1612, 1044, 1045,  272,  273,  825,  824
1513, 1611, 1610, 1042, 1043,  274,  275,  827,  826
1514, 1041, 1042, 1610, 4579,  828,  827,  275, 3097
1515, 4399, 1605, 1604, 4306, 2917,  280,  281, 2824
1516, 1602, 4456, 4397, 1603,  283, 2974, 2915,  282
1517, 4480, 4500, 4526, 4310, 2998, 3018, 3044, 2828
1518, 4310, 4526, 4430, 4511, 2828, 3044, 2948, 3029
1519, 4323, 4510, 4522, 4474, 2841, 3028, 3040, 2992
1520, 4539, 4324, 4504, 4520, 3057, 2842, 3022, 3038
1521, 4336, 4546, 4529, 4551, 2854, 3064, 3047, 3069
1522, 4364, 4434, 4445, 4377, 2882, 2952, 2963, 2895
1523, 4365, 4374, 1017, 1018, 2883, 2892,  852,  851
1524, 4377, 4445, 4446, 4373, 2895, 2963, 2964, 2891
1525, 4374, 4368, 1016, 1017, 2892, 2886,  853,  852
1526,   48, 1015, 4370, 2783,   39,  854, 2888, 1178
1527, 2783, 4370, 4413, 2776, 1178, 2888, 2931, 1179
1528, 4402, 4384, 4383, 4303, 2920, 2902, 2901, 2821
1529, 4303, 1636, 1635, 4402, 2821,  249,  250, 2920
1530,  934,  935, 4359, 4304,  803,  802, 2877, 2822
1531, 4593,  932,  933, 4592, 3111,  805,  804, 3110
1532, 4584, 4587, 4305, 4369, 3102, 3105, 2823, 2887
1533, 1035, 1036, 4375, 4360,  834,  833, 2893, 2878
1534, 1036, 1037, 4362, 4375,  833,  832, 2880, 2893
1535, 4456, 4483, 4439, 4397, 2974, 3001, 2957, 2915
1536, 4360, 4371, 1034, 1035, 2878, 2889,  835,  834
1537, 4371, 4366, 1033, 1034, 2889, 2884,  836,  835
1538, 4480, 4310, 4497, 4498, 2998, 2828, 3015, 3016
1539, 4480, 4433, 4483, 4500, 2998, 2951, 3001, 3018
1540, 4366, 4427, 1032, 1033, 2884, 2945,  837,  836
1541, 4427, 4378, 1031, 1032, 2945, 2896,  838,  837
1542, 4313, 4581, 4312, 4479, 2831, 3099, 2830, 2997
1543, 4498, 4497, 4479, 4428, 3016, 3015, 2997, 2946
1544, 4378, 4312, 1030, 1031, 2896, 2830,  839,  838
1545, 1028, 1029, 4443, 4379,  841,  840, 2961, 2897
1546, 4443, 4468, 4447, 4379, 2961, 2986, 2965, 2897
1547, 1025, 1026, 4367, 4376,  844,  843, 2885, 2894
1548, 4372, 4442, 4324, 4367, 2890, 2960, 2842, 2885
1549, 4324, 4539, 4376, 4367, 2842, 3057, 2894, 2885
1550, 4544, 4361, 1023, 1024, 3062, 2879,  846,  845
1551, 4546, 4335, 4361, 4529, 3064, 2853, 2879, 3047
1552, 4370, 4368, 4444, 4413, 2888, 2886, 2962, 2931
1553, 4411, 2778, 2784, 4419, 2929, 1182, 1181, 2937
1554, 4411, 4419, 4622, 4459, 2929, 2937, 3140, 2977
1555, 4627, 4545, 4552, 4337, 3145, 3063, 3070, 2855
1556, 4555, 4331, 4561, 4569, 3073, 2849, 3079, 3087
1557, 4565, 4656, 4561, 4548, 3083, 3174, 3079, 3066
1558, 4553, 4653, 4570, 4573, 3071, 3171, 3088, 3091
1559, 4538, 4499, 4648, 4652, 3056, 3017, 3166, 3170
1560, 1597, 1596, 4389, 4396,  288,  289, 2907, 2914
1561, 4620, 4463, 4396, 4389, 3138, 2981, 2914, 2907
1562, 4388, 1600, 1599, 4392, 2906,  285,  286, 2910
1563, 4308, 1601, 1600, 4388, 2826,  284,  285, 2906
1564, 4459, 4505, 4415, 4411, 2977, 3023, 2933, 2929
1565, 2778, 4411, 4415, 2785, 1182, 2929, 2933, 1183
1566, 4582, 4418, 4340, 4460, 3100, 2936, 2858, 2978
1567, 4505, 4340, 4418, 4415, 3023, 2858, 2936, 2933
1568, 4561, 4649, 4574, 4569, 3079, 3167, 3092, 3087
1569, 4571, 4327, 4543, 4550, 3089, 2845, 3061, 3068
1570, 4321, 4562, 4521, 4508, 2839, 3080, 3039, 3026
1571, 4488, 4648, 4315, 4630, 3006, 3166, 2833, 3148
1572, 4400, 1595, 1594, 4457, 2918,  290,  291, 2975
1573, 4389, 4400, 4448, 4620, 2907, 2918, 2966, 3138
1574, 4398, 1598, 1597, 4396, 2916,  287,  288, 2914
1575, 2781, 2786, 4412, 4416, 1187, 1186, 2930, 2934
1576, 4617, 4417, 4416, 4578, 3135, 2935, 2934, 3096
1577, 4347, 4329, 4453, 4431, 2865, 2847, 2971, 2949
1578, 4478, 4431, 4524, 4490, 2996, 2949, 3042, 3008
1579, 4354, 4357, 2773, 2772, 2872, 2875, 1174, 1173
1580, 2765, 4352,  408,  466, 1166, 2870,   13,   21
1581, 4350, 2763, 2762, 4348, 2868, 1163, 1162, 2866
1582, 4345, 4319, 4435, 4437, 2863, 2837, 2953, 2955
1583, 4457, 1594,  292, 4560, 2975,  291,    8, 3078
1584, 4534, 4530, 4470, 4535, 3052, 3048, 2988, 3053
1585, 4534, 4642, 4514, 4536, 3052, 3160, 3032, 3054
1586, 4525, 4543, 4514, 4509, 3043, 3061, 3032, 3027
1587, 2787, 2782, 4417, 4414, 1189, 1188, 2935, 2932
1588, 4319, 4345, 2774, 2768, 2837, 2863, 1176, 1175
1589, 4437, 4350, 4348, 4345, 2955, 2868, 2866, 2863
1590, 4436, 4399, 4362, 4363, 2954, 2917, 2880, 2881
1591, 1624, 1623, 4612, 4613,  261,  262, 3130, 3131
1592, 4304, 4602, 4601, 4592, 2822, 3120, 3119, 3110
1593, 4466, 4625, 4390, 4454, 2984, 3143, 2908, 2972
1594, 4624, 4287, 4401, 4391, 3142, 2805, 2919, 2909
1595, 4517, 4292, 4493, 4293, 3035, 2810, 3011, 2811
1596, 1641, 4531, 4604, 1642,  244, 3049, 3122,  243
1597, 4624, 4625, 4640, 4527, 3142, 3143, 3158, 3045
1598, 4495, 4298, 4451, 4472, 3013, 2816, 2969, 2990
1599, 2794, 4406, 4346, 2789, 1195, 2924, 2864, 1196
1600, 4311, 4423, 4473, 4547, 2829, 2941, 2991, 3065
1601, 4392, 4311, 4481, 4430, 2910, 2829, 2999, 2948
1602, 4646, 4499, 4538, 4515, 3164, 3017, 3056, 3033
1603, 4533, 4516, 4494, 4523, 3051, 3034, 3012, 3041
1604, 4355, 4354, 2772, 2767, 2873, 2872, 1173, 1172
1605, 4317, 4426, 4320, 4535, 2835, 2944, 2838, 3053
1606, 4525, 4509, 4616, 4334, 3043, 3027, 3134, 2852
1607, 4329, 4356, 4452, 4453, 2847, 2874, 2970, 2971
1608, 2770, 2769, 4358, 4356, 1169, 1168, 2876, 2874
1609, 4438, 4349, 4350, 4437, 2956, 2867, 2868, 2955
1610, 4351, 2764, 2761, 4349, 2869, 1165, 1164, 2867
1611, 4329, 4347, 2771, 2766, 2847, 2865, 1171, 1170
1612, 4431, 4478, 4355, 4347, 2949, 2996, 2873, 2865
1613, 4630, 4484, 4508, 4488, 3148, 3002, 3026, 3006
1614, 4653, 4553, 4515, 4538, 3171, 3071, 3033, 3056
1615, 4631, 4474, 4522, 4504, 3149, 2992, 3040, 3022
1616, 4325, 4542, 4520, 4504, 2843, 3060, 3038, 3022
1617, 4322, 4488, 4508, 4521, 2840, 3006, 3026, 3039
1618, 4552, 4564, 4574, 4337, 3070, 3082, 3092, 2855
1619, 4555, 4551, 4558, 4331, 3073, 3069, 3076, 2849
1620, 4525, 4333, 4550, 4543, 3043, 2851, 3068, 3061
1621, 1167, 2787, 4414, 4409,   57, 1189, 2932, 2927
1622, 4567, 4626, 4617, 4578, 3085, 3144, 3135, 3096
1623, 4505, 4512, 4545, 4340, 3023, 3030, 3063, 2858
1624, 4364, 4335, 4546, 4434, 2882, 2853, 3064, 2952
1625, 4647, 4572, 4567, 4575, 3165, 3090, 3085, 3093
1626, 4412, 2786, 2780, 4582, 2930, 1186, 1185, 3100
1627, 1019, 1020, 4377, 4373,  850,  849, 2895, 2891
1628, 4560, 4317, 4535, 4470, 3078, 2835, 3053, 2988
1629, 4344, 2799, 1201, 2802, 2862, 1202,   59, 1206
1630, 4421, 2798, 2799, 4344, 2939, 1203, 1202, 2862
1631, 2800, 4462, 4420, 2801, 1204, 2980, 2938, 1205
1632, 2801, 4420, 2791, 1190, 1205, 2938, 1191,   58
1633, 2793, 2788, 4405, 4404, 1194, 1193, 2923, 2922
1634, 4408, 2790, 2795, 4299, 2926, 1198, 1197, 2817
1635, 4380, 2797, 2796, 4407, 2898, 1200, 1199, 2925
1636, 4387,  947,  948, 4380, 2905,  790,  789, 2898
1637, 4290, 4528,  942,  943, 2808, 3046,  795,  794
1638, 4588, 4589,  940,  941, 3106, 3107,  797,  796
1639, 4600, 4593, 4592, 4601, 3118, 3111, 3110, 3119
1640, 4593, 4600, 4599, 4594, 3111, 3118, 3117, 3112
1641,  928, 4596, 4597,  927,  809, 3114, 3115,  810
1642, 4609, 4610, 1621, 1620, 3127, 3128,  264,  265
1643, 4606, 1617, 1616, 4605, 3124,  268,  269, 3123
1644, 1612, 1611, 1043, 1044,  273,  274,  826,  825
1645, 4584, 4369, 1040, 4583, 3102, 2887,  829, 3101
1646, 4369, 4305, 1039, 1040, 2887, 2823,  830,  829
1647, 1039, 4305, 4363, 1038,  830, 2823, 2881,  831
1648, 1027, 1028, 4379, 4372,  842,  841, 2897, 2890
1649, 1026, 1027, 4372, 4367,  843,  842, 2890, 2885
1650, 4376, 4544, 1024, 1025, 2894, 3062,  845,  844
1651, 4361, 4335, 1022, 1023, 2879, 2853,  847,  846
1652, 4335, 4364, 1021, 1022, 2853, 2882,  848,  847
1653, 1018, 1019, 4373, 4365,  851,  850, 2891, 2883
1654, 1015, 1016, 4368, 4370,  854,  853, 2886, 2888
1655, 4418, 2779, 2785, 4415, 2936, 1184, 1183, 2933
1656, 2769, 1167, 4409, 4358, 1168,   57, 2927, 2876
1657, 2766, 2770, 4356, 4329, 1170, 1169, 2874, 2847
1658, 4347, 4355, 2767, 2771, 2865, 2873, 1172, 1171
1659, 2768, 2773, 4357, 4319, 1175, 1174, 2875, 2837
1660, 4348, 2762, 1161, 2775, 2866, 1162,   56, 1177
1661, 4591, 4342,  408, 4352, 3109, 2860,   13, 2870
1662, 4455, 1646, 4401, 4286, 2973,  239, 2919, 2804
1663, 4604, 4454, 1643, 1642, 3122, 2972,  242,  243
1664, 4531, 1641, 1640, 4395, 3049,  244,  245, 2913
1665, 1633, 4602, 4603, 1634,  252, 3120, 3121,  251
1666, 1630, 1629,  930, 4599,  255,  256,  807, 3117
1667, 1627, 1626, 4598, 4597,  258,  259, 3116, 3115
1668, 1626, 1625, 4614, 4598,  259,  260, 3132, 3116
1669, 4612, 1623, 1622, 4611, 3130,  262,  263, 3129
1670, 1615, 4586, 4605, 1616,  270, 3104, 3123,  269
1671, 4586, 1615, 1614, 4585, 3104,  270,  271, 3103
1672, 1609, 4583, 4579, 1610,  276, 3101, 3097,  275
1673, 1607, 1606, 4436, 4587,  278,  279, 2954, 3105
1674, 4399, 4306, 4485, 4362, 2917, 2824, 3003, 2880
1675, 1603, 4397, 4306, 1604,  282, 2915, 2824,  281
1676, 4456, 1602, 1601, 4308, 2974,  283,  284, 2826
1677, 1598, 4398, 4392, 1599,  287, 2916, 2910,  286
1678, 4389, 1596, 1595, 4400, 2907,  289,  290, 2918
1679, 4590,  292,  408, 4342, 3108,    8,   13, 2860
1680, 4429, 4421, 4344, 4343, 2947, 2939, 2862, 2861
1681, 2775, 2774, 4345, 4348, 1177, 1176, 2863, 2866
1682, 4487, 4299, 4346, 4461, 3005, 2817, 2864, 2979
1683, 4637, 4461, 4346, 4503, 3155, 2979, 2864, 3021
1684, 4352, 2765, 2764, 4351, 2870, 1166, 1165, 2869
1685, 4422, 4351, 4349, 4438, 2940, 2869, 2867, 2956
1686, 4349, 2761, 2763, 4350, 2867, 1164, 1163, 2868
1687, 4318, 4438, 4437, 4435, 2836, 2956, 2955, 2953
1688, 4422, 4591, 4352, 4351, 2940, 3109, 2870, 2869
1689, 4317, 4590, 4353, 4426, 2835, 3108, 2871, 2944
1690, 4635, 4471, 4623, 4490, 3153, 2989, 3141, 3008
1691, 4357, 4354, 4285, 4440, 2875, 2872, 2803, 2958
1692, 4478, 4285, 4354, 4355, 2996, 2803, 2872, 2873
1693, 4616, 4452, 4356, 4358, 3134, 2970, 2874, 2876
1694, 4440, 4435, 4319, 4357, 2958, 2953, 2837, 2875
1695, 4334, 4616, 4358, 4409, 2852, 3134, 2876, 2927
1696,  935,  936, 4384, 4359,  802,  801, 2902, 2877
1697, 4375, 4439, 4307, 4360, 2893, 2957, 2825, 2878
1698, 4330, 4529, 4361, 4544, 2848, 3047, 2879, 3062
1699, 4363, 4362, 1037, 1038, 2881, 2880,  832,  831
1700, 4364, 4377, 1020, 1021, 2882, 2895,  849,  848
1701, 4373, 4446, 4341, 4365, 2891, 2964, 2859, 2883
1702, 4366, 4371, 4433, 4619, 2884, 2889, 2951, 3137
1703, 4410, 2777, 2776, 4413, 2928, 1180, 1179, 2931
1704, 4413, 4444, 4621, 4410, 2931, 2962, 3139, 2928
1705, 1040, 1041, 4579, 4583,  829,  828, 3097, 3101
1706, 4307, 4433, 4371, 4360, 2825, 2951, 2889, 2878
1707, 4379, 4447, 4442, 4372, 2897, 2965, 2960, 2890
1708, 4368, 4374, 4615, 4444, 2886, 2892, 3133, 2962
1709, 4397, 4439, 4485, 4306, 2915, 2957, 3003, 2824
1710, 4568, 4445, 4434, 4559, 3086, 2963, 2952, 3077
1711, 4428, 4479, 4312, 4378, 2946, 2997, 2830, 2896
1712, 4428, 4378, 4427, 4309, 2946, 2896, 2945, 2827
1713, 4387, 4380, 4407, 4300, 2905, 2898, 2925, 2818
1714, 4298, 4469, 4449, 4381, 2816, 2987, 2967, 2899
1715, 4300, 4451, 4382, 4387, 2818, 2969, 2900, 2905
1716, 4303, 4383, 4450, 4393, 2821, 2901, 2968, 2911
1717, 4385, 4383,  937,  938, 2903, 2901,  800,  799
1718, 4603, 4359, 4384, 4402, 3121, 2877, 2902, 2920
1719, 4464, 4301, 4385, 4386, 2982, 2819, 2903, 2904
1720, 4638, 4432, 4301, 4464, 3156, 2950, 2819, 2982
1721, 4464, 4386, 4589, 4291, 2982, 2904, 3107, 2809
1722, 4388, 4526, 4500, 4308, 2906, 3044, 3018, 2826
1723, 4526, 4388, 4392, 4430, 3044, 2906, 2910, 2948
1724, 4454, 4390, 1644, 1643, 2972, 2908,  241,  242
1725, 1646, 1645, 4391, 4401,  239,  240, 2909, 2919
1726, 4423, 4311, 4392, 4398, 2941, 2829, 2910, 2916
1727, 4450, 4301, 4394, 4393, 2968, 2819, 2912, 2911
1728, 4301, 4432, 4302, 4394, 2819, 2950, 2820, 2912
1729, 4531, 4395, 4482, 4517, 3049, 2913, 3000, 3035
1730, 4463, 4423, 4398, 4396, 2981, 2941, 2916, 2914
1731, 4362, 4485, 4439, 4375, 2880, 3003, 2957, 2893
1732, 4436, 1606, 1605, 4399, 2954,  279,  280, 2917
1733, 4448, 4400, 4457, 4316, 2966, 2918, 2975, 2834
1734, 4287, 4424, 4286, 4401, 2805, 2942, 2804, 2919
1735, 4294, 4425, 4405, 4403, 2812, 2943, 2923, 2921
1736, 4462, 4294, 4403, 4420, 2980, 2812, 2921, 2938
1737, 4405, 4295, 4486, 4404, 2923, 2813, 3004, 2922
1738, 4489, 4295, 4405, 4425, 3007, 2813, 2923, 2943
1739, 4576, 4300, 4407, 4408, 3094, 2818, 2925, 2926
1740, 4299, 4487, 4576, 4408, 2817, 3005, 3094, 2926
1741, 4458, 4334, 4409, 4414, 2976, 2852, 2927, 2932
1742, 4419, 2784, 2777, 4410, 2937, 1181, 1180, 2928
1743, 4460, 4627, 4575, 4338, 2978, 3145, 3093, 2856
1744, 4333, 4525, 4334, 4458, 2851, 3043, 2852, 2976
1745, 2782, 2781, 4416, 4417, 1188, 1187, 2934, 2935
1746, 4578, 4416, 4412, 4338, 3096, 2934, 2930, 2856
1747, 4617, 4458, 4414, 4417, 3135, 2976, 2932, 2935
1748, 4582, 2780, 2779, 4418, 3100, 1185, 1184, 2936
1749, 4632, 4342, 4591, 4422, 3150, 2860, 3109, 2940
1750, 4314, 4481, 4311, 4547, 2832, 2999, 2829, 3065
1751, 4463, 4629, 4473, 4423, 2981, 3147, 2991, 2941
1752, 4425, 4507, 4618, 4489, 2943, 3025, 3136, 3007
1753, 4490, 4623, 4285, 4478, 3008, 3141, 2803, 2996
1754, 4366, 4619, 4309, 4427, 2884, 3137, 2827, 2945
1755, 4537, 4497, 4310, 4511, 3055, 3015, 2828, 3029
1756, 4524, 4431, 4453, 4475, 3042, 2949, 2971, 2993
1757, 4432, 4482, 4395, 4302, 2950, 3000, 2913, 2820
1758, 4439, 4483, 4433, 4307, 2957, 3001, 2951, 2825
1759, 4498, 4619, 4433, 4480, 3016, 3137, 2951, 2998
1760, 4336, 4559, 4434, 4546, 2854, 3077, 2952, 3064
1761, 4501, 4318, 4435, 4440, 3019, 2836, 2953, 2958
1762, 4632, 4623, 4471, 4353, 3150, 3141, 2989, 2871
1763, 4503, 4441, 4486, 4296, 3021, 2959, 3004, 2814
1764, 4504, 4324, 4442, 4631, 3022, 2842, 2960, 3149
1765, 4474, 4631, 4442, 4447, 2992, 3149, 2960, 2965
1766, 1029, 1030, 4312, 4443,  840,  839, 2830, 2961
1767, 4622, 4621, 4444, 4615, 3140, 3139, 2962, 3133
1768, 4446, 4445, 4568, 4339, 2964, 2963, 3086, 2857
1769, 4339, 4459, 4341, 4446, 2857, 2977, 2859, 2964
1770, 4474, 4447, 4468, 4323, 2992, 2965, 2986, 2841
1771, 4528, 4290, 4449, 4476, 3046, 2808, 2967, 2994
1772, 4289, 4476, 4449, 4469, 2807, 2994, 2967, 2987
1773, 4452, 4616, 4509, 4328, 2970, 3134, 3027, 2846
1774, 4328, 4475, 4453, 4452, 2846, 2993, 2971, 2970
1775, 4466, 4454, 4604, 4293, 2984, 2972, 3122, 2811
1776, 4429, 4343,  238, 4465, 2947, 2861,    7, 2983
1777, 4560, 4470, 4316, 4457, 3078, 2988, 2834, 2975
1778, 4333, 4458, 4617, 4626, 2851, 2976, 3135, 3144
1779, 4615, 4341, 4459, 4622, 3133, 2859, 2977, 3140
1780, 4412, 4582, 4460, 4338, 2930, 3100, 2978, 2856
1781, 4460, 4340, 4545, 4627, 2978, 2858, 3063, 3145
1782, 4576, 4487, 4297, 4472, 3094, 3005, 2815, 2990
1783, 4425, 4294, 4462, 4507, 2943, 2812, 2980, 3025
1784, 4629, 4463, 4620, 4315, 3147, 2981, 3138, 2833
1785, 4507, 4429, 4465, 4618, 3025, 2947, 2983, 3136
1786, 4288, 4541, 4518, 4540, 2806, 3059, 3036, 3058
1787, 4618, 4467, 4477, 4489, 3136, 2985, 2995, 3007
1788, 4581, 4494, 4323, 4468, 3099, 3012, 2841, 2986
1789, 4523, 4494, 4581, 4313, 3041, 3012, 3099, 2831
1790, 4469, 4298, 4495, 4651, 2987, 2816, 3013, 3169
1791, 4530, 4484, 4316, 4470, 3048, 3002, 2834, 2988
1792, 4623, 4501, 4440, 4285, 3141, 3019, 2958, 2803
1793, 4635, 4426, 4353, 4471, 3153, 2944, 2871, 2989
1794, 4461, 4643, 4297, 4487, 2979, 3161, 2815, 3005
1795, 4492, 4636, 4524, 4475, 3010, 3154, 3042, 2993
1796, 4296, 4486, 4295, 4491, 2814, 3004, 2813, 3009
1797, 4491, 4477, 4286, 4424, 3009, 2995, 2804, 2942
1798, 4318, 4501, 4623, 4632, 2836, 3019, 3141, 3150
1799, 4537, 4313, 4479, 4497, 3055, 2831, 2997, 3015
1800, 4468, 4443, 4312, 4581, 2986, 2961, 2830, 3099
1801, 4430, 4481, 4537, 4511, 2948, 2999, 3055, 3029
1802, 4500, 4483, 4456, 4308, 3018, 3001, 2974, 2826
1803, 4321, 4508, 4484, 4530, 2839, 3026, 3002, 3048
1804, 4484, 4630, 4448, 4316, 3002, 3148, 2966, 2834
1805, 4648, 4499, 4629, 4315, 3166, 3017, 3147, 2833
1806, 4636, 4635, 4490, 4524, 3154, 3153, 3008, 3042
1807, 4642, 4320, 4636, 4492, 3160, 2838, 3154, 3010
1808, 4633, 4296, 4491, 4549, 3151, 2814, 3009, 3067
1809, 4530, 4534, 4536, 4321, 3048, 3052, 3054, 2839
1810, 4645, 4492, 4475, 4328, 3163, 3010, 2993, 2846
1811, 4493, 4292, 4502, 4519, 3011, 2810, 3020, 3037
1812, 4494, 4516, 4510, 4323, 3012, 3034, 3028, 2841
1813, 4577, 4540, 4495, 4644, 3095, 3058, 3013, 3162
1814, 4297, 4644, 4495, 4472, 2815, 3162, 3013, 2990
1815, 4533, 4314, 4646, 4515, 3051, 2832, 3164, 3033
1816, 4322, 4652, 4648, 4488, 2840, 3170, 3166, 3006
1817, 4519, 4502, 4476, 4289, 3037, 3020, 2994, 2807
1818, 4527, 4554, 4577, 4532, 3045, 3072, 3095, 3050
1819, 4515, 4553, 4522, 4510, 3033, 3071, 3040, 3028
1820, 4512, 4505, 4459, 4339, 3030, 3023, 2977, 2857
1821, 4634, 4506, 4502, 4292, 3152, 3024, 3020, 2810
1822, 4562, 4563, 4570, 4521, 3080, 3081, 3088, 3039
1823, 4514, 4645, 4328, 4509, 3032, 3163, 2846, 3027
1824, 4516, 4533, 4515, 4510, 3034, 3051, 3033, 3028
1825, 4481, 4523, 4313, 4537, 2999, 3041, 2831, 3055
1826, 4552, 4639, 4568, 4559, 3070, 3157, 3086, 3077
1827, 4577, 4549, 4513, 4532, 3095, 3067, 3031, 3050
1828, 4532, 4513, 4424, 4287, 3050, 3031, 2942, 2805
1829, 4327, 4536, 4514, 4543, 2845, 3054, 3032, 3061
1830, 4523, 4481, 4314, 4533, 3041, 2999, 2832, 3051
1831, 4482, 4634, 4292, 4517, 3000, 3152, 2810, 3035
1832, 4469, 4651, 4518, 4289, 2987, 3169, 3036, 2807
1833, 4519, 4541, 4641, 4493, 3037, 3059, 3159, 3011
1834, 4539, 4520, 4558, 4330, 3057, 3038, 3076, 2848
1835, 4653, 4322, 4521, 4570, 3171, 2840, 3039, 3088
1836, 4327, 4562, 4321, 4536, 2845, 3080, 2839, 3054
1837, 4504, 4522, 4580, 4325, 3022, 3040, 3098, 2843
1838, 4288, 4554, 4527, 4640, 2806, 3072, 3045, 3158
1839, 4604, 4531, 4517, 4293, 3122, 3049, 3035, 2811
1840, 4642, 4534, 4535, 4320, 3160, 3052, 3053, 2838
1841, 4426, 4635, 4636, 4320, 2944, 3153, 3154, 2838
1842, 4492, 4645, 4514, 4642, 3010, 3163, 3032, 3160
1843, 4646, 4314, 4547, 4473, 3164, 2832, 3065, 2991
1844, 4330, 4544, 4376, 4539, 2848, 3062, 2894, 3057
1845, 4561, 4331, 4542, 4548, 3079, 2849, 3060, 3066
1846, 4562, 4327, 4571, 4563, 3080, 2845, 3089, 3081
1847, 4336, 4551, 4555, 4564, 2854, 3069, 3073, 3082
1848, 4551, 4529, 4330, 4558, 3069, 3047, 2848, 3076
1849, 4520, 4542, 4331, 4558, 3038, 3060, 2849, 3076
1850, 4556, 4548, 4542, 4325, 3074, 3066, 3060, 2843
1851, 4637, 4503, 4296, 4633, 3155, 3021, 2814, 3151
1852, 4461, 4637, 4633, 4643, 2979, 3155, 3151, 3161
1853, 4565, 4655, 4571, 4566, 3083, 3173, 3089, 3084
1854, 4571, 4550, 4557, 4566, 3089, 3068, 3075, 3084
1855, 4336, 4564, 4552, 4559, 2854, 3082, 3070, 3077
1856, 4325, 4580, 4654, 4556, 2843, 3098, 3172, 3074
1857, 4288, 4540, 4577, 4554, 2806, 3058, 3095, 3072
1858, 4580, 4573, 4570, 4654, 3098, 3091, 3088, 3172
1859, 4626, 4567, 4572, 4557, 3144, 3085, 3090, 3075
1860, 4333, 4626, 4557, 4550, 2851, 3144, 3075, 3068
1861, 4590, 4317, 4560,  292, 3108, 2835, 3078,    8
1862, 4656, 4565, 4566, 4332, 3174, 3083, 3084, 2850
1863, 4563, 4571, 4655, 4326, 3081, 3089, 3173, 2844
1864, 4556, 4655, 4565, 4548, 3074, 3173, 3083, 3066
1865, 4572, 4332, 4566, 4557, 3090, 2850, 3084, 3075
1866, 4575, 4567, 4578, 4338, 3093, 3085, 3096, 2856
1867, 4339, 4568, 4639, 4512, 2857, 3086, 3157, 3030
1868, 4569, 4574, 4564, 4555, 3087, 3092, 3082, 3073
1869, 4322, 4653, 4538, 4652, 2840, 3171, 3056, 3170
1870, 4654, 4570, 4563, 4326, 3172, 3088, 3081, 2844
1871, 4522, 4553, 4573, 4580, 3040, 3071, 3091, 3098
1872, 4649, 4647, 4337, 4574, 3167, 3165, 2855, 3092
1873, 4337, 4647, 4575, 4627, 2855, 3165, 3093, 3145
1874, 4643, 4633, 4549, 4650, 3161, 3151, 3067, 3168
1875, 4644, 4650, 4549, 4577, 3162, 3168, 3067, 3095
1876, 4584, 4583, 1609, 1608, 3102, 3101,  276,  277
1877, 1608, 1607, 4587, 4584,  277,  278, 3105, 3102
1878, 1047, 1048, 4586, 4585,  822,  821, 3104, 3103
1879, 4587, 4436, 4363, 4305, 3105, 2954, 2881, 2823
1880, 4589, 4588, 4496, 4291, 3107, 3106, 3014, 2809
1881, 4590, 4342, 4632, 4353, 3108, 2860, 3150, 2871
1882, 4594,  931,  932, 4593, 3112,  806,  805, 3111
1883, 4594, 4599,  930,  931, 3112, 3117,  807,  806
1884, 1630, 4599, 4600, 1631,  255, 3117, 3118,  254
1885,  930, 1629, 4595,  929,  807,  256, 3113,  808
1886, 4595, 4596,  928,  929, 3113, 3114,  809,  808
1887,  926,  927, 4597, 4598,  811,  810, 3115, 3116
1888, 1631, 4600, 4601, 1632,  254, 3118, 3119,  253
1889, 4602, 1633, 1632, 4601, 3120,  252,  253, 3119
1890, 1634, 4603, 4402, 1635,  251, 3121, 2920,  250
1891, 4586, 1048, 1049, 4605, 3104,  821,  820, 3123
1892, 1617, 4606, 4607, 1618,  268, 3124, 3125,  267
1893, 4606, 1050, 1051, 4607, 3124,  819,  818, 3125
1894, 4607, 1051, 1052, 4608, 3125,  818,  817, 3126
1895, 4610, 4609,   43,  921, 3128, 3127,   38,  816
1896, 4612, 4611,  922,  923, 3130, 3129,  815,  814
1897,  924, 4613, 4612,  923,  813, 3131, 3130,  814
1898, 4614, 1625, 1624, 4613, 3132,  260,  261, 3131
1899, 4598, 4614,  925,  926, 3116, 3132,  812,  811
1900, 4374, 4365, 4341, 4615, 2892, 2883, 2859, 3133
1901, 4630, 4315, 4620, 4448, 3148, 2833, 3138, 2966
1902, 4359, 4603, 4602, 4304, 2877, 3121, 3120, 2822
1903, 4622, 4419, 4410, 4621, 3140, 2937, 2928, 3139
1904, 4625, 4624, 4391, 4390, 3143, 3142, 2909, 2908
1905, 4506, 4634, 4638, 4628, 3024, 3152, 3156, 3146
1906, 4499, 4646, 4473, 4629, 3017, 3164, 2991, 3147
1907, 4422, 4438, 4318, 4632, 2940, 2956, 2836, 3150
1908, 4634, 4482, 4432, 4638, 3152, 3000, 2950, 3156
1909, 4428, 4309, 4619, 4498, 2946, 2827, 3137, 3016
1910, 4512, 4639, 4552, 4545, 3030, 3157, 3070, 3063
1911, 4541, 4288, 4640, 4641, 3059, 2806, 3158, 3159
1912, 4641, 4640, 4625, 4466, 3159, 3158, 3143, 2984
1913, 4332, 4572, 4647, 4649, 2850, 3090, 3165, 3167
1914, 4644, 4297, 4643, 4650, 3162, 2815, 3161, 3168
1915, 4326, 4655, 4556, 4654, 2844, 3173, 3074, 3172
1916, 4332, 4649, 4561, 4656, 2850, 3167, 3079, 3174
1917,  182,    5, 2569, 2559, 1593,  181, 4837, 4827
1918,  183, 2495, 2494,  184, 1592, 4763, 4762, 1591
1919, 2570, 2745, 2597, 2397, 4838, 5013, 4865, 4665
1920, 2610, 2606, 2580, 2600, 4878, 4874, 4848, 4868
1921, 2692, 2600, 2580, 2632, 4960, 4868, 4848, 4900
1922, 1074, 1075, 2692, 2632, 3793, 3794, 4960, 4900
1923, 2693, 1076, 1077, 2490, 4961, 3795, 3796, 4758
1924, 1078, 2489, 2490, 1077, 3797, 4757, 4758, 3796
1925, 2405, 2489, 2487, 2554, 4673, 4757, 4755, 4822
1926, 2497, 2407,  192,  191, 4765, 4675, 1583, 1584
1927,  191,  190, 2498, 2497, 1584, 1585, 4766, 4765
1928,  190,  189, 2406, 2498, 1585, 1586, 4674, 4766
1929,  189,  188, 2499, 2406, 1586, 1587, 4767, 4674
1930, 2732, 2610, 2600, 2395, 5000, 4878, 4868, 4663
1931, 2395, 2568, 2742, 2732, 4663, 4836, 5010, 5000
1932, 1053, 2448,   11,   23, 3562, 4716,  347,  521
1933,    5,   11, 2448, 2447,  181,  347, 4716, 4715
1934, 2611, 2533, 2525, 2566, 4879, 4801, 4793, 4834
1935, 1059, 2507, 2524, 1058, 3758, 4775, 4792, 3757
1936, 2507, 1059, 1060, 2509, 4775, 3758, 3759, 4777
1937, 1062, 2510, 2508, 1061, 3761, 4778, 4776, 3760
1938, 2508, 2510, 2545, 2590, 4776, 4778, 4813, 4858
1939, 2559, 2571, 2581, 2390, 4827, 4839, 4849, 4658
1940, 2593, 2399, 2595, 2581, 4861, 4667, 4863, 4849
1941, 2571, 2559, 2569, 2722, 4839, 4827, 4837, 4990
1942, 2566, 2525, 1055, 1056, 4834, 4793, 3566, 3567
1943, 2450, 1063, 1064, 2403, 4718, 3762, 3763, 4671
1944, 2510, 2450, 2607, 2545, 4778, 4718, 4875, 4813
1945, 2391, 2636, 2631, 2728, 4659, 4904, 4899, 4996
1946, 2528, 2595, 2653, 2617, 4796, 4863, 4921, 4885
1947, 1065, 1066, 2511, 2512, 3764, 3765, 4779, 4780
1948,   51, 1068, 2484, 1067, 1225, 3787, 4752, 3766
1949, 1069, 1070, 2486, 2491, 3788, 3789, 4754, 4759
1950, 2486, 2485, 2402, 2555, 4754, 4753, 4670, 4823
1951, 2553, 2485, 1071, 1072, 4821, 4753, 3790, 3791
1952, 1070, 1071, 2485, 2486, 3789, 3790, 4753, 4754
1953, 2623, 2645, 2622, 2393, 4891, 4913, 4890, 4661
1954, 2644, 2599, 2755, 2622, 4912, 4867, 5023, 4890
1955, 2404, 2555, 2576, 2680, 4672, 4823, 4844, 4948
1956, 1072, 1073, 2394, 2553, 3791, 3792, 4662, 4821
1957, 2487, 1079, 1080, 2488, 4755, 3798, 3799, 4756
1958, 1083, 2696, 2408, 1082, 3802, 4964, 4676, 3801
1959, 2701,  201,  200, 2700, 4969, 1574, 1575, 4968
1960,  199, 2699, 2700,  200, 1576, 4967, 4968, 1575
1961, 1092, 2717, 2718, 1091, 3811, 4985, 4986, 3810
1962, 1095, 2714, 2715, 1094, 3814, 4982, 4983, 3813
1963,  207,  206, 2715, 2714, 1568, 1569, 4983, 4982
1964,   52, 1096, 2712, 2713, 1224, 3643, 4980, 4981
1965,  209,  208, 2713, 2712, 1566, 1567, 4981, 4980
1966, 2712, 2711,  210,  209, 4980, 4979, 1565, 1566
1967, 1098, 1099, 2709, 2710, 3645, 3646, 4977, 4978
1968, 2689, 1101, 1102,  214, 4957, 3648, 3649, 1561
1969,  214, 1102, 1103,  215, 1561, 3649, 3650, 1560
1970,  215, 1103, 1104,  216, 1560, 3650, 3651, 1559
1971,  217, 1105, 1106,  218, 1558, 3652, 3653, 1557
1972, 1107, 2683,  218, 1106, 3654, 4951, 1557, 3653
1973, 2503, 2410,  224,  223, 4771, 4678, 1551, 1552
1974,  226,  225, 2501, 2560, 1549, 1550, 4769, 4828
1975, 2584, 2414, 2630, 2604, 4852, 4682, 4898, 4872
1976, 2414, 2615, 2534, 2630, 4682, 4883, 4802, 4898
1977, 2427, 2578, 2626, 2614, 4695, 4846, 4894, 4882
1978, 2643, 2624, 2608, 2428, 4911, 4892, 4876, 4696
1979, 2440, 2655, 2633, 2650, 4708, 4923, 4901, 4918
1980, 2468, 2481, 2549, 2538, 4736, 4749, 4817, 4806
1981, 2469, 1130, 1131, 2478, 4737, 3677, 3678, 4746
1982, 2481, 2477, 2550, 2549, 4749, 4745, 4818, 4817
1983, 2478, 1131, 1132, 2472, 4746, 3678, 3679, 4740
1984,   53, 1134, 2474, 1133, 1218, 3577, 4742, 3680
1985, 1134, 1135, 2517, 2474, 3577, 3578, 4785, 4742
1986, 2506, 2407, 2487, 2488, 4774, 4675, 4755, 4756
1987, 2407, 2506,  193,  192, 4675, 4774, 1582, 1583
1988, 1082, 2408, 2463, 1081, 3801, 4676, 4731, 3800
1989, 2697, 2696, 1083, 1084, 4965, 4964, 3802, 3803
1990, 2688, 2473, 2409, 2691, 4956, 4741, 4677, 4959
1991, 1113, 2464, 2479, 1112, 3660, 4732, 4747, 3659
1992, 1112, 2479, 2466, 1111, 3659, 4747, 4734, 3658
1993, 2560, 2501, 2543, 2587, 4828, 4769, 4811, 4855
1994, 2464, 1113, 1114, 2475, 4732, 3660, 3661, 4743
1995, 2475, 1114, 1115, 2470, 4743, 3661, 3662, 4738
1996, 2584, 2602, 2601, 2414, 4852, 4870, 4869, 4682
1997, 2584, 2604, 2587, 2537, 4852, 4872, 4855, 4805
1998, 2470, 1115, 1116, 2531, 4738, 3662, 3663, 4799
1999, 2531, 1116, 1117, 2482, 4799, 3663, 3664, 4750
2000, 2417, 2583, 2416, 2685, 4685, 4851, 4684, 4953
2001, 2602, 2532, 2583, 2601, 4870, 4800, 4851, 4869
2002, 2482, 1117, 1118, 2416, 4750, 3664, 3665, 4684
2003, 1120, 2483, 2547, 1119, 3667, 4751, 4815, 3666
2004, 2547, 2483, 2551, 2572, 4815, 4751, 4819, 4840
2005, 1123, 2480, 2471, 1122, 3670, 4748, 4739, 3669
2006, 2476, 2471, 2428, 2546, 4744, 4739, 4696, 4814
2007, 2428, 2471, 2480, 2643, 4696, 4739, 4748, 4911
2008, 2648, 1124, 1125, 2465, 4916, 3671, 3672, 4733
2009, 2650, 2633, 2465, 2439, 4918, 4901, 4733, 4707
2010, 2474, 2517, 2548, 2472, 4742, 4785, 4816, 4740
2011, 2515, 2523, 1137, 1138, 4783, 4791, 3580, 3581
2012, 2515, 2563, 2726, 2523, 4783, 4831, 4994, 4791
2013, 2731, 2441, 2656, 2649, 4999, 4709, 4924, 4917
2014, 2659, 2673, 2665, 2435, 4927, 4941, 4933, 4703
2015, 2669, 2652, 2665, 2760, 4937, 4920, 4933, 5028
2016, 2657, 2677, 2674, 2757, 4925, 4945, 4942, 5025
2017, 2642, 2756, 2752, 2603, 4910, 5024, 5020, 4871
2018,  231, 2500, 2493,  232, 1544, 4768, 4761, 1543
2019, 2724, 2493, 2500, 2567, 4992, 4761, 4768, 4835
2020, 2492, 2496,  229,  228, 4760, 4764, 1546, 1547
2021, 2412, 2492,  228,  227, 4680, 4760, 1547, 1548
2022, 2563, 2515, 2519, 2609, 4831, 4783, 4787, 4877
2023, 1138, 1139, 2519, 2515, 3581, 3582, 4787, 4783
2024, 2686, 2564, 2444, 2522, 4954, 4832, 4712, 4790
2025, 2609, 2519, 2522, 2444, 4877, 4787, 4790, 4712
2026, 2665, 2673, 2678, 2753, 4933, 4941, 4946, 5021
2027, 2675, 2654, 2647, 2431, 4943, 4922, 4915, 4699
2028, 2425, 2612, 2625, 2666, 4693, 4880, 4893, 4934
2029, 2592, 2734, 2419, 2752, 4860, 5002, 4687, 5020
2030, 2504, 2561,  234,  233, 4772, 4829, 1541, 1542
2031, 2493, 2724, 2552, 2504, 4761, 4992, 4820, 4772
2032, 2502, 2500,  231,  230, 4770, 4768, 1544, 1545
2033, 1143, 2520, 2516, 1142, 3586, 4788, 4784, 3585
2034, 2721, 2682, 2520, 2521, 4989, 4950, 4788, 4789
2035, 2451, 2535, 2557, 2433, 4719, 4803, 4825, 4701
2036, 2582, 2594, 2628, 2535, 4850, 4862, 4896, 4803
2037, 2458, 1151, 1152, 2461, 4726, 3618, 3619, 4729
2038, 1160,   20,   16, 2456, 3551,  465,  407, 4724
2039, 2454, 2452, 1156, 1157, 4722, 4720, 3547, 3548
2040, 2449, 2541, 2539, 2423, 4717, 4809, 4807, 4691
2041, 2561, 2664,    6,  234, 4829, 4932,  235, 1541
2042, 2638, 2639, 2574, 2634, 4906, 4907, 4842, 4902
2043, 2638, 2640, 2618, 2746, 4906, 4908, 4886, 5014
2044, 2629, 2613, 2618, 2647, 4897, 4881, 4886, 4915
2045, 1145, 2518, 2521, 1144, 3588, 4786, 4789, 3587
2046, 2423, 1153, 1154, 2449, 4691, 3620, 3621, 4717
2047, 2541, 2449, 2452, 2454, 4809, 4717, 4720, 4722
2048, 2540, 2467, 2466, 2503, 4808, 4735, 4734, 4771
2049,  204, 2717, 2716,  205, 1571, 4985, 4984, 1570
2050, 2408, 2696, 2705, 2706, 4676, 4964, 4973, 4974
2051, 2570, 2558, 2494, 2729, 4838, 4826, 4762, 4997
2052, 2728, 2495, 2505, 2391, 4996, 4763, 4773, 4659
2053, 2621, 2397, 2597, 2396, 4889, 4665, 4865, 4664
2054,  187,  186, 2708, 2635, 1588, 1589, 4976, 4903
2055, 2728, 2631, 2744, 2729, 4996, 4899, 5012, 4997
2056, 2599, 2576, 2555, 2402, 4867, 4844, 4823, 4670
2057, 1062, 1063, 2450, 2510, 3761, 3762, 4718, 4778
2058, 2415, 2651, 2577, 2527, 4683, 4919, 4845, 4795
2059, 2496, 2534, 2585, 2415, 4764, 4802, 4853, 4683
2060, 2750, 2619, 2642, 2603, 5018, 4887, 4910, 4871
2061, 2637, 2627, 2598, 2620, 4905, 4895, 4866, 4888
2062, 2459, 1150, 1151, 2458, 4727, 3617, 3618, 4726
2063, 2421, 2639, 2424, 2530, 4689, 4907, 4692, 4798
2064, 2629, 2438, 2720, 2613, 4897, 4706, 4988, 4881
2065, 2433, 2557, 2556, 2460, 4701, 4825, 4824, 4728
2066, 1147, 2460, 2462, 1146, 3614, 4728, 4730, 3613
2067, 2542, 2541, 2454, 2453, 4810, 4809, 4722, 4721
2068, 2455, 2453, 1158, 1159, 4723, 4721, 3549, 3550
2069, 2433, 1148, 1149, 2451, 4701, 3615, 3616, 4719
2070, 2535, 2451, 2459, 2582, 4803, 4719, 4727, 4850
2071, 2734, 2592, 2612, 2588, 5002, 4860, 4880, 4856
2072, 2757, 2642, 2619, 2657, 5025, 4910, 4887, 4925
2073, 2735, 2608, 2626, 2578, 5003, 4876, 4894, 4846
2074, 2429, 2608, 2624, 2646, 4697, 4876, 4892, 4914
2075, 2426, 2625, 2612, 2592, 4694, 4893, 4880, 4860
2076, 2656, 2441, 2678, 2668, 4924, 4709, 4946, 4936
2077, 2659, 2435, 2662, 2655, 4927, 4703, 4930, 4923
2078, 2629, 2647, 2654, 2437, 4897, 4915, 4922, 4705
2079,   54, 2513, 2518, 1145, 1219, 4781, 4786, 3588
2080, 2671, 2682, 2721, 2730, 4939, 4950, 4989, 4998
2081, 2609, 2444, 2649, 2616, 4877, 4712, 4917, 4884
2082, 2468, 2538, 2650, 2439, 4736, 4806, 4918, 4707
2083, 2751, 2679, 2671, 2676, 5019, 4947, 4939, 4944
2084, 2516, 2686, 1141, 1142, 4784, 4954, 3584, 3585
2085, 1129, 2477, 2481, 1128, 3676, 4745, 4749, 3675
2086, 2664, 2574, 2639, 2421, 4932, 4842, 4907, 4689
2087, 2448, 1053,   49, 1054, 4716, 3562, 1210, 3565
2088, 2525, 2448, 1054, 1055, 4793, 4716, 3565, 3566
2089, 1056, 1057, 2524, 2566, 3567, 3568, 4792, 4834
2090, 1057,   50, 1058, 2524, 3568, 1213, 3757, 4792
2091, 1061, 2508, 2509, 1060, 3760, 4776, 4777, 3759
2092, 2512, 2403, 1064, 1065, 4780, 4671, 3763, 3764
2093, 2484, 2511, 1066, 1067, 4752, 4779, 3765, 3766
2094, 2491, 2484, 1068, 1069, 4759, 4752, 3787, 3788
2095, 2394, 1073, 1074, 2632, 4662, 3792, 3793, 4900
2096, 2692, 1075, 1076, 2693, 4960, 3794, 3795, 4961
2097, 2704, 2705, 2696, 2697, 4972, 4973, 4964, 4965
2098, 2697, 2698, 2703, 2704, 4965, 4966, 4971, 4972
2099, 1088, 1089, 2701, 2700, 3807, 3808, 4969, 4968
2100, 2713,  208,  207, 2714, 4981, 1567, 1568, 4982
2101, 2710, 2709,  212,  211, 4978, 4977, 1563, 1564
2102,  216, 1104, 1105,  217, 1559, 3651, 3652, 1558
2103, 2688, 2687, 1108, 2473, 4956, 4955, 3655, 4741
2104, 2473, 1108, 1109, 2409, 4741, 3655, 3656, 4677
2105, 1109, 1110, 2467, 2409, 3656, 3657, 4735, 4677
2106, 1121, 2476, 2483, 1120, 3668, 4744, 4751, 3667
2107, 1122, 2471, 2476, 1121, 3669, 4739, 4744, 3668
2108, 2480, 1123, 1124, 2648, 4748, 3670, 3671, 4916
2109, 2465, 1125, 1126, 2439, 4733, 3672, 3673, 4707
2110, 2439, 1126, 1127, 2468, 4707, 3673, 3674, 4736
2111, 1130, 2469, 2477, 1129, 3677, 4737, 4745, 3676
2112, 1133, 2474, 2472, 1132, 3680, 4742, 4740, 3679
2113, 2522, 2519, 1139, 1140, 4790, 4787, 3582, 3583
2114, 1146, 2462, 2513,   54, 3613, 4730, 4781, 1219
2115, 1148, 2433, 2460, 1147, 3615, 4701, 4728, 3614
2116, 2451, 1149, 1150, 2459, 4719, 3616, 3617, 4727
2117, 1153, 2423, 2461, 1152, 3620, 4691, 4729, 3619
2118, 2452, 1155,   55, 1156, 4720, 3622, 1209, 3547
2119, 2695, 2456,   16, 2446, 4963, 4724,  407, 4714
2120, 2559, 2390, 2505,  182, 4827, 4658, 4773, 1593
2121, 2708,  186,  185, 2558, 4976, 1589, 1590, 4826
2122, 2635, 2499,  188,  187, 4903, 4767, 1587, 1588
2123,  195,  194, 2707, 2706, 1580, 1581, 4975, 4974
2124,  198, 2703, 1086,  199, 1577, 4971, 3805, 1576
2125,  201, 2701, 2702,  202, 1574, 4969, 4970, 1573
2126,  202, 2702, 2718,  203, 1573, 4970, 4986, 1572
2127, 2716, 2715,  206,  205, 4984, 4983, 1569, 1570
2128,  213,  212, 2709, 2690, 1562, 1563, 4977, 4958
2129, 2690, 2689,  214,  213, 4958, 4957, 1561, 1562
2130,  219,  218, 2683, 2687, 1556, 1557, 4951, 4955
2131,  221, 2691, 2540,  222, 1554, 4959, 4808, 1553
2132, 2503, 2466, 2589, 2410, 4771, 4734, 4857, 4678
2133,  225,  224, 2410, 2501, 1550, 1551, 4678, 4769
2134, 2560, 2412,  227,  226, 4828, 4680, 1548, 1549
2135,  230,  229, 2496, 2502, 1545, 1546, 4764, 4770
2136, 2493, 2504,  233,  232, 4761, 4772, 1542, 1543
2137, 2694, 2446,   16,    6, 4962, 4714,  407,  235
2138, 2533, 2447, 2448, 2525, 4801, 4715, 4716, 4793
2139, 1155, 2452, 2449, 1154, 3622, 4720, 4717, 3621
2140, 2591, 2565, 2450, 2403, 4859, 4833, 4718, 4671
2141, 2741, 2607, 2450, 2565, 5009, 4875, 4718, 4833
2142, 2456, 2455, 1159, 1160, 4724, 4723, 3550, 3551
2143, 2526, 2542, 2453, 2455, 4794, 4810, 4721, 4723
2144, 2453, 2454, 1157, 1158, 4721, 4722, 3548, 3549
2145, 2422, 2539, 2541, 2542, 4690, 4807, 4809, 4810
2146, 2526, 2455, 2456, 2695, 4794, 4723, 4724, 4963
2147, 2421, 2530, 2457, 2694, 4689, 4798, 4725, 4962
2148, 2739, 2594, 2727, 2575, 5007, 4862, 4995, 4843
2149, 2461, 2544, 2389, 2458, 4729, 4812, 4657, 4726
2150, 2582, 2459, 2458, 2389, 4850, 4727, 4726, 4657
2151, 2720, 2462, 2460, 2556, 4988, 4730, 4728, 4824
2152, 2544, 2461, 2423, 2539, 4812, 4729, 4691, 4807
2153, 2438, 2513, 2462, 2720, 4706, 4781, 4730, 4988
2154, 1081, 2463, 2488, 1080, 3800, 4731, 4756, 3799
2155, 2479, 2464, 2411, 2543, 4747, 4732, 4679, 4811
2156, 2434, 2648, 2465, 2633, 4702, 4916, 4733, 4901
2157, 2467, 1110, 1111, 2466, 4735, 3657, 3658, 4734
2158, 2468, 1127, 1128, 2481, 4736, 3674, 3675, 4749
2159, 2477, 2469, 2445, 2550, 4745, 4737, 4713, 4818
2160, 2470, 2723, 2537, 2475, 4738, 4991, 4805, 4743
2161, 2514, 2517, 1135, 1136, 4782, 4785, 3578, 3579
2162, 2517, 2514, 2725, 2548, 4785, 4782, 4993, 4816
2163, 1108, 2687, 2683, 1107, 3655, 4955, 4951, 3654
2164, 2411, 2464, 2475, 2537, 4679, 4732, 4743, 4805
2165, 2483, 2476, 2546, 2551, 4751, 4744, 4814, 4819
2166, 2472, 2548, 2719, 2478, 4740, 4816, 4987, 4746
2167, 2501, 2410, 2589, 2543, 4769, 4678, 4857, 4811
2168, 2672, 2663, 2538, 2549, 4940, 4931, 4806, 4817
2169, 2532, 2482, 2416, 2583, 4800, 4750, 4684, 4851
2170, 2532, 2413, 2531, 2482, 4800, 4681, 4799, 4750
2171, 2491, 2404, 2511, 2484, 4759, 4672, 4779, 4752
2172, 2402, 2485, 2553, 2573, 4670, 4753, 4821, 4841
2173, 2404, 2491, 2486, 2555, 4672, 4759, 4754, 4823
2174, 2407, 2497, 2554, 2487, 4675, 4765, 4822, 4755
2175, 2489, 1078, 1079, 2487, 4757, 3797, 3798, 4755
2176, 2707, 2506, 2488, 2463, 4975, 4774, 4756, 4731
2177, 2568, 2490, 2489, 2405, 4836, 4758, 4757, 4673
2178, 2742, 2568, 2405, 2536, 5010, 4836, 4673, 4804
2179, 2568, 2395, 2693, 2490, 4836, 4663, 4961, 4758
2180, 2492, 2412, 2604, 2630, 4760, 4680, 4872, 4898
2181, 2630, 2534, 2496, 2492, 4898, 4802, 4764, 4760
2182, 2558,  185,  184, 2494, 4826, 1590, 1591, 4762
2183,  182, 2505, 2495,  183, 1593, 4773, 4763, 1592
2184, 2527, 2502, 2496, 2415, 4795, 4770, 4764, 4683
2185, 2554, 2497, 2498, 2405, 4822, 4765, 4766, 4673
2186, 2405, 2498, 2406, 2536, 4673, 4766, 4674, 4804
2187, 2635, 2621, 2586, 2499, 4903, 4889, 4854, 4767
2188, 2567, 2500, 2502, 2527, 4835, 4768, 4770, 4795
2189, 2466, 2479, 2543, 2589, 4734, 4747, 4811, 4857
2190, 2540, 2503,  223,  222, 4808, 4771, 1552, 1553
2191, 2552, 2420, 2561, 2504, 4820, 4688, 4829, 4772
2192, 2391, 2505, 2390, 2528, 4659, 4773, 4658, 4796
2193, 2398, 2507, 2509, 2529, 4666, 4775, 4777, 4797
2194, 2566, 2524, 2507, 2398, 4834, 4792, 4775, 4666
2195, 2509, 2508, 2590, 2399, 4777, 4776, 4858, 4667
2196, 2593, 2529, 2509, 2399, 4861, 4797, 4777, 4667
2197, 2680, 2512, 2511, 2404, 4948, 4780, 4779, 4672
2198, 2403, 2512, 2680, 2591, 4671, 4780, 4948, 4859
2199, 2562, 2518, 2513, 2438, 4830, 4786, 4781, 4706
2200, 2523, 2514, 1136, 1137, 4791, 4782, 3579, 3580
2201, 2564, 2442, 2679, 2731, 4832, 4710, 4947, 4999
2202, 2437, 2562, 2438, 2629, 4705, 4830, 4706, 4897
2203, 1144, 2521, 2520, 1143, 3587, 4789, 4788, 3586
2204, 2682, 2442, 2516, 2520, 4950, 4710, 4784, 4788
2205, 2721, 2521, 2518, 2562, 4989, 4789, 4786, 4830
2206, 2686, 2522, 1140, 1141, 4954, 4790, 3583, 3584
2207, 2736, 2526, 2695, 2446, 5004, 4794, 4963, 4714
2208, 2418, 2651, 2415, 2585, 4686, 4919, 4683, 4853
2209, 2567, 2527, 2577, 2733, 4835, 4795, 4845, 5001
2210, 2529, 2593, 2722, 2611, 4797, 4861, 4990, 4879
2211, 2594, 2582, 2389, 2727, 4862, 4850, 4657, 4995
2212, 2470, 2531, 2413, 2723, 4738, 4799, 4681, 4991
2213, 2641, 2615, 2414, 2601, 4909, 4883, 4682, 4869
2214, 2628, 2579, 2557, 2535, 4896, 4847, 4825, 4803
2215, 2536, 2406, 2499, 2586, 4804, 4674, 4767, 4854
2216, 2543, 2411, 2537, 2587, 4811, 4679, 4805, 4855
2217, 2602, 2584, 2537, 2723, 4870, 4852, 4805, 4991
2218, 2440, 2650, 2538, 2663, 4708, 4918, 4806, 4931
2219, 2605, 2544, 2539, 2422, 4873, 4812, 4807, 4690
2220, 2736, 2457, 2575, 2727, 5004, 4725, 4843, 4995
2221, 2607, 2400, 2590, 2545, 4875, 4668, 4858, 4813
2222, 2608, 2735, 2546, 2428, 4876, 5003, 4814, 4696
2223, 2578, 2551, 2546, 2735, 4846, 4819, 4814, 5003
2224, 1119, 2547, 2416, 1118, 3666, 4815, 4684, 3665
2225, 2726, 2719, 2548, 2725, 4994, 4987, 4816, 4993
2226, 2550, 2443, 2672, 2549, 4818, 4711, 4940, 4817
2227, 2443, 2550, 2445, 2563, 4711, 4818, 4713, 4831
2228, 2578, 2427, 2572, 2551, 4846, 4695, 4840, 4819
2229, 2632, 2580, 2553, 2394, 4900, 4848, 4821, 4662
2230, 2393, 2573, 2553, 2580, 4661, 4841, 4821, 4848
2231, 2556, 2432, 2613, 2720, 4824, 4700, 4881, 4988
2232, 2432, 2556, 2557, 2579, 4700, 4824, 4825, 4847
2233, 2570, 2397, 2708, 2558, 4838, 4665, 4976, 4826
2234, 2533, 2569,    5, 2447, 4801, 4837,  181, 4715
2235, 2664, 2561, 2420, 2574, 4932, 4829, 4688, 4842
2236, 2437, 2730, 2721, 2562, 4705, 4998, 4989, 4830
2237, 2719, 2726, 2563, 2445, 4987, 4994, 4831, 4713
2238, 2516, 2442, 2564, 2686, 4784, 4710, 4832, 4954
2239, 2564, 2731, 2649, 2444, 4832, 4999, 4917, 4712
2240, 2680, 2576, 2401, 2591, 4948, 4844, 4669, 4859
2241, 2529, 2611, 2566, 2398, 4797, 4879, 4834, 4666
2242, 2733, 2419, 2724, 2567, 5001, 4687, 4992, 4835
2243, 2611, 2722, 2569, 2533, 4879, 4990, 4837, 4801
2244, 2392, 2644, 2622, 2645, 4660, 4912, 4890, 4913
2245, 2722, 2593, 2581, 2571, 4990, 4861, 4849, 4839
2246, 2685, 2572, 2427, 2598, 4953, 4840, 4695, 4866
2247, 2627, 2417, 2685, 2598, 4895, 4685, 4953, 4866
2248, 2573, 2755, 2599, 2402, 4841, 5023, 4867, 4670
2249, 2634, 2574, 2420, 2588, 4902, 4842, 4688, 4856
2250, 2727, 2389, 2544, 2605, 4995, 4657, 4812, 4873
2251, 2739, 2575, 2457, 2530, 5007, 4843, 4725, 4798
2252, 2565, 2591, 2401, 2747, 4833, 4859, 4669, 5015
2253, 2596, 2579, 2628, 2740, 4864, 4847, 4896, 5008
2254, 2400, 2595, 2399, 2590, 4668, 4863, 4667, 4858
2255, 2595, 2528, 2390, 2581, 4863, 4796, 4658, 4849
2256, 2422, 2736, 2727, 2605, 4690, 5004, 4995, 4873
2257, 2641, 2601, 2583, 2417, 4909, 4869, 4851, 4685
2258, 2572, 2685, 2416, 2547, 4840, 4953, 4684, 4815
2259, 2534, 2615, 2641, 2585, 4802, 4883, 4909, 4853
2260, 2604, 2412, 2560, 2587, 4872, 4680, 4828, 4855
2261, 2425, 2634, 2588, 2612, 4693, 4902, 4856, 4880
2262, 2588, 2420, 2552, 2734, 4856, 4688, 4820, 5002
2263, 2752, 2419, 2733, 2603, 5020, 4687, 5001, 4871
2264, 2740, 2628, 2594, 2739, 5008, 4896, 4862, 5007
2265, 2746, 2596, 2740, 2424, 5014, 4864, 5008, 4692
2266, 2737, 2653, 2595, 2400, 5005, 4921, 4863, 4668
2267, 2634, 2425, 2640, 2638, 4902, 4693, 4908, 4906
2268, 2749, 2432, 2579, 2596, 5017, 4700, 4847, 4864
2269, 2597, 2623, 2606, 2396, 4865, 4891, 4874, 4664
2270, 2598, 2427, 2614, 2620, 4866, 4695, 4882, 4888
2271, 2681, 2748, 2599, 2644, 4949, 5016, 4867, 4912
2272, 2401, 2576, 2599, 2748, 4669, 4844, 4867, 5016
2273, 2637, 2619, 2750, 2418, 4905, 4887, 5018, 4686
2274, 2426, 2592, 2752, 2756, 4694, 4860, 5020, 5024
2275, 2623, 2393, 2580, 2606, 4891, 4661, 4848, 4874
2276, 2631, 2636, 2681, 2658, 4899, 4904, 4949, 4926
2277, 2619, 2614, 2626, 2657, 4887, 4882, 4894, 4925
2278, 2616, 2443, 2563, 2609, 4884, 4711, 4831, 4877
2279, 2738, 2396, 2606, 2610, 5006, 4664, 4874, 4878
2280, 2666, 2625, 2674, 2667, 4934, 4893, 4942, 4935
2281, 2618, 2613, 2432, 2749, 4886, 4881, 4700, 5017
2282, 2620, 2614, 2619, 2637, 4888, 4882, 4887, 4905
2283, 2585, 2641, 2417, 2627, 4853, 4909, 4685, 4895
2284, 2656, 2663, 2672, 2743, 4924, 4931, 4940, 5011
2285, 2681, 2636, 2617, 2653, 4949, 4904, 4885, 4921
2286, 2636, 2391, 2528, 2617, 4904, 4659, 4796, 4885
2287, 2431, 2647, 2618, 2640, 4699, 4915, 4886, 4908
2288, 2627, 2637, 2418, 2585, 4895, 4905, 4686, 4853
2289, 2586, 2621, 2396, 2738, 4854, 4889, 4664, 5006
2290, 2573, 2393, 2622, 2755, 4841, 4661, 4890, 5023
2291, 2623, 2597, 2745, 2645, 4891, 4865, 5013, 4913
2292, 2643, 2434, 2662, 2624, 4911, 4702, 4930, 4892
2293, 2757, 2674, 2625, 2426, 5025, 4942, 4893, 4694
2294, 2431, 2640, 2425, 2666, 4699, 4908, 4693, 4934
2295, 2608, 2429, 2684, 2626, 4876, 4697, 4952, 4894
2296, 2392, 2744, 2631, 2658, 4660, 5012, 4899, 4926
2297, 2708, 2397, 2621, 2635, 4976, 4665, 4889, 4903
2298, 2746, 2424, 2639, 2638, 5014, 4692, 4907, 4906
2299, 2530, 2424, 2740, 2739, 4798, 4692, 5008, 5007
2300, 2596, 2746, 2618, 2749, 4864, 5014, 4886, 5017
2301, 2750, 2577, 2651, 2418, 5018, 4845, 4919, 4686
2302, 2434, 2643, 2480, 2648, 4702, 4911, 4748, 4916
2303, 2665, 2652, 2646, 2435, 4933, 4920, 4914, 4703
2304, 2666, 2667, 2675, 2431, 4934, 4935, 4943, 4699
2305, 2440, 2668, 2659, 2655, 4708, 4936, 4927, 4923
2306, 2655, 2662, 2434, 2633, 4923, 4930, 4702, 4901
2307, 2624, 2662, 2435, 2646, 4892, 4930, 4703, 4914
2308, 2660, 2429, 2646, 2652, 4928, 4697, 4914, 4920
2309, 2741, 2737, 2400, 2607, 5009, 5005, 4668, 4875
2310, 2565, 2747, 2737, 2741, 4833, 5015, 5005, 5009
2311, 2669, 2670, 2675, 2759, 4937, 4938, 4943, 5027
2312, 2675, 2670, 2661, 2654, 4943, 4938, 4929, 4922
2313, 2440, 2663, 2656, 2668, 4708, 4931, 4924, 4936
2314, 2429, 2660, 2758, 2684, 4697, 4928, 5026, 4952
2315, 2392, 2658, 2681, 2644, 4660, 4926, 4949, 4912
2316, 2684, 2758, 2674, 2677, 4952, 5026, 4942, 4945
2317, 2730, 2661, 2676, 2671, 4998, 4929, 4944, 4939
2318, 2437, 2654, 2661, 2730, 4705, 4922, 4929, 4998
2319, 2694,    6, 2664, 2421, 4962,  235, 4932, 4689
2320, 2760, 2436, 2670, 2669, 5028, 4704, 4938, 4937
2321, 2667, 2430, 2759, 2675, 4935, 4698, 5027, 4943
2322, 2660, 2652, 2669, 2759, 4928, 4920, 4937, 5027
2323, 2676, 2661, 2670, 2436, 4944, 4929, 4938, 4704
2324, 2679, 2442, 2682, 2671, 4947, 4710, 4950, 4939
2325, 2443, 2616, 2743, 2672, 4711, 4884, 5011, 4940
2326, 2673, 2659, 2668, 2678, 4941, 4927, 4936, 4946
2327, 2426, 2756, 2642, 2757, 4694, 5024, 4910, 5025
2328, 2758, 2430, 2667, 2674, 5026, 4698, 4935, 4942
2329, 2626, 2684, 2677, 2657, 4894, 4952, 4945, 4925
2330, 2753, 2678, 2441, 2751, 5021, 4946, 4709, 5019
2331, 2441, 2731, 2679, 2751, 4709, 4999, 4947, 5019
2332, 2747, 2754, 2653, 2737, 5015, 5022, 4921, 5005
2333, 2748, 2681, 2653, 2754, 5016, 4949, 4921, 5022
2334, 2688,  220,  219, 2687, 4956, 1555, 1556, 4955
2335,  220, 2688, 2691,  221, 1555, 4956, 4959, 1554
2336, 1101, 2689, 2690, 1100, 3648, 4957, 4958, 3647
2337, 2691, 2409, 2467, 2540, 4959, 4677, 4735, 4808
2338, 2693, 2395, 2600, 2692, 4961, 4663, 4868, 4960
2339, 2694, 2457, 2736, 2446, 4962, 4725, 5004, 4714
2340, 2698, 2697, 1084, 1085, 4966, 4965, 3803, 3804
2341, 2698, 1085, 1086, 2703, 4966, 3804, 3805, 4971
2342,  198,  197, 2704, 2703, 1577, 1578, 4972, 4971
2343, 1086, 1087, 2699,  199, 3805, 3806, 4967, 1576
2344, 2699, 1087, 1088, 2700, 4967, 3806, 3807, 4968
2345, 1090, 2702, 2701, 1089, 3809, 4970, 4969, 3808
2346,  197,  196, 2705, 2704, 1578, 1579, 4973, 4972
2347, 2706, 2705,  196,  195, 4974, 4973, 1579, 1580
2348,  194,  193, 2506, 2707, 1581, 1582, 4774, 4975
2349, 2690, 2709, 1099, 1100, 4958, 4977, 3646, 3647
2350,  211,  210, 2711, 2710, 1564, 1565, 4979, 4978
2351, 2710, 2711, 1097, 1098, 4978, 4979, 3644, 3645
2352, 2711, 2712, 1096, 1097, 4979, 4980, 3643, 3644
2353, 2714, 1095,   52, 2713, 4982, 3814, 1224, 4981
2354, 2716, 1093, 1094, 2715, 4984, 3812, 3813, 4983
2355, 1092, 1093, 2716, 2717, 3811, 3812, 4984, 4985
2356, 2718, 2717,  204,  203, 4986, 4985, 1571, 1572
2357, 2702, 1090, 1091, 2718, 4970, 3809, 3810, 4986
2358, 2478, 2719, 2445, 2469, 4746, 4987, 4713, 4737
2359, 2734, 2552, 2724, 2419, 5002, 4820, 4992, 4687
2360, 2463, 2408, 2706, 2707, 4731, 4676, 4974, 4975
2361, 2726, 2725, 2514, 2523, 4994, 4993, 4782, 4791
2362, 2729, 2494, 2495, 2728, 4997, 4762, 4763, 4996
2363, 2610, 2732, 2742, 2738, 4878, 5000, 5010, 5006
2364, 2603, 2733, 2577, 2750, 4871, 5001, 4845, 5018
2365, 2526, 2736, 2422, 2542, 4794, 5004, 4690, 4810
2366, 2738, 2742, 2536, 2586, 5006, 5010, 4804, 4854
2367, 2532, 2602, 2723, 2413, 4800, 4870, 4991, 4681
2368, 2616, 2649, 2656, 2743, 4884, 4917, 4924, 5011
2369, 2645, 2745, 2744, 2392, 4913, 5013, 5012, 4660
2370, 2745, 2570, 2729, 2744, 5013, 4838, 4997, 5012
2371, 2436, 2753, 2751, 2676, 4704, 5021, 5019, 4944
2372, 2748, 2754, 2747, 2401, 5016, 5022, 5015, 4669
2373, 2430, 2758, 2660, 2759, 4698, 5026, 4928, 5027
2374, 2436, 2760, 2665, 2753, 4704, 5028, 4933, 5021
2375, 1593,  181, 4837, 4827, 1540,  180, 5209, 5199
2376, 1592, 4763, 4762, 1591, 1539, 5135, 5134, 1538
2377, 4838, 5013, 4865, 4665, 5210, 5385, 5237, 5037
2378, 4878, 4874, 4848, 4868, 5250, 5246, 5220, 5240
2379, 4960, 4868, 4848, 4900, 5332, 5240, 5220, 5272
2380, 3793, 3794, 4960, 4900, 3821, 3822, 5332, 5272
2381, 4961, 3795, 3796, 4758, 5333, 3823, 3824, 5130
2382, 3797, 4757, 4758, 3796, 3825, 5129, 5130, 3824
2383, 4673, 4757, 4755, 4822, 5045, 5129, 5127, 5194
2384, 4765, 4675, 1583, 1584, 5137, 5047, 1530, 1531
2385, 1584, 1585, 4766, 4765, 1531, 1532, 5138, 5137
2386, 1585, 1586, 4674, 4766, 1532, 1533, 5046, 5138
2387, 1586, 1587, 4767, 4674, 1533, 1534, 5139, 5046
2388, 5000, 4878, 4868, 4663, 5372, 5250, 5240, 5035
2389, 4663, 4836, 5010, 5000, 5035, 5208, 5382, 5372
2390, 3562, 4716,  347,  521, 3563, 5088,  348,  522
2391,  181,  347, 4716, 4715,  180,  348, 5088, 5087
2392, 4879, 4801, 4793, 4834, 5251, 5173, 5165, 5206
2393, 3758, 4775, 4792, 3757, 3768, 5147, 5164, 3767
2394, 4775, 3758, 3759, 4777, 5147, 3768, 3769, 5149
2395, 3761, 4778, 4776, 3760, 3771, 5150, 5148, 3770
2396, 4776, 4778, 4813, 4858, 5148, 5150, 5185, 5230
2397, 4827, 4839, 4849, 4658, 5199, 5211, 5221, 5030
2398, 4861, 4667, 4863, 4849, 5233, 5039, 5235, 5221
2399, 4839, 4827, 4837, 4990, 5211, 5199, 5209, 5362
2400, 4834, 4793, 3566, 3567, 5206, 5165, 3570, 3571
2401, 4718, 3762, 3763, 4671, 5090, 3772, 3773, 5043
2402, 4778, 4718, 4875, 4813, 5150, 5090, 5247, 5185
2403, 4659, 4904, 4899, 4996, 5031, 5276, 5271, 5368
2404, 4796, 4863, 4921, 4885, 5168, 5235, 5293, 5257
2405, 3764, 3765, 4779, 4780, 3774, 3775, 5151, 5152
2406, 1225, 3787, 4752, 3766, 1226, 3815, 5124, 3776
2407, 3788, 3789, 4754, 4759, 3816, 3817, 5126, 5131
2408, 4754, 4753, 4670, 4823, 5126, 5125, 5042, 5195
2409, 4821, 4753, 3790, 3791, 5193, 5125, 3818, 3819
2410, 3789, 3790, 4753, 4754, 3817, 3818, 5125, 5126
2411, 4891, 4913, 4890, 4661, 5263, 5285, 5262, 5033
2412, 4912, 4867, 5023, 4890, 5284, 5239, 5395, 5262
2413, 4672, 4823, 4844, 4948, 5044, 5195, 5216, 5320
2414, 3791, 3792, 4662, 4821, 3819, 3820, 5034, 5193
2415, 4755, 3798, 3799, 4756, 5127, 3826, 3827, 5128
2416, 3802, 4964, 4676, 3801, 3830, 5336, 5048, 3829
2417, 4969, 1574, 1575, 4968, 5341, 1521, 1522, 5340
2418, 1576, 4967, 4968, 1575, 1523, 5339, 5340, 1522
2419, 3811, 4985, 4986, 3810, 3839, 5357, 5358, 3838
2420, 3814, 4982, 4983, 3813, 3842, 5354, 5355, 3841
2421, 1568, 1569, 4983, 4982, 1515, 1516, 5355, 5354
2422, 1224, 3643, 4980, 4981, 1223, 3681, 5352, 5353
2423, 1566, 1567, 4981, 4980, 1513, 1514, 5353, 5352
2424, 4980, 4979, 1565, 1566, 5352, 5351, 1512, 1513
2425, 3645, 3646, 4977, 4978, 3683, 3684, 5349, 5350
2426, 4957, 3648, 3649, 1561, 5329, 3686, 3687, 1508
2427, 1561, 3649, 3650, 1560, 1508, 3687, 3688, 1507
2428, 1560, 3650, 3651, 1559, 1507, 3688, 3689, 1506
2429, 1558, 3652, 3653, 1557, 1505, 3690, 3691, 1504
2430, 3654, 4951, 1557, 3653, 3692, 5323, 1504, 3691
2431, 4771, 4678, 1551, 1552, 5143, 5050, 1498, 1499
2432, 1549, 1550, 4769, 4828, 1496, 1497, 5141, 5200
2433, 4852, 4682, 4898, 4872, 5224, 5054, 5270, 5244
2434, 4682, 4883, 4802, 4898, 5054, 5255, 5174, 5270
2435, 4695, 4846, 4894, 4882, 5067, 5218, 5266, 5254
2436, 4911, 4892, 4876, 4696, 5283, 5264, 5248, 5068
2437, 4708, 4923, 4901, 4918, 5080, 5295, 5273, 5290
2438, 4736, 4749, 4817, 4806, 5108, 5121, 5189, 5178
2439, 4737, 3677, 3678, 4746, 5109, 3715, 3716, 5118
2440, 4749, 4745, 4818, 4817, 5121, 5117, 5190, 5189
2441, 4746, 3678, 3679, 4740, 5118, 3716, 3717, 5112
2442, 1218, 3577, 4742, 3680, 1217, 3589, 5114, 3718
2443, 3577, 3578, 4785, 4742, 3589, 3590, 5157, 5114
2444, 4774, 4675, 4755, 4756, 5146, 5047, 5127, 5128
2445, 4675, 4774, 1582, 1583, 5047, 5146, 1529, 1530
2446, 3801, 4676, 4731, 3800, 3829, 5048, 5103, 3828
2447, 4965, 4964, 3802, 3803, 5337, 5336, 3830, 3831
2448, 4956, 4741, 4677, 4959, 5328, 5113, 5049, 5331
2449, 3660, 4732, 4747, 3659, 3698, 5104, 5119, 3697
2450, 3659, 4747, 4734, 3658, 3697, 5119, 5106, 3696
2451, 4828, 4769, 4811, 4855, 5200, 5141, 5183, 5227
2452, 4732, 3660, 3661, 4743, 5104, 3698, 3699, 5115
2453, 4743, 3661, 3662, 4738, 5115, 3699, 3700, 5110
2454, 4852, 4870, 4869, 4682, 5224, 5242, 5241, 5054
2455, 4852, 4872, 4855, 4805, 5224, 5244, 5227, 5177
2456, 4738, 3662, 3663, 4799, 5110, 3700, 3701, 5171
2457, 4799, 3663, 3664, 4750, 5171, 3701, 3702, 5122
2458, 4685, 4851, 4684, 4953, 5057, 5223, 5056, 5325
2459, 4870, 4800, 4851, 4869, 5242, 5172, 5223, 5241
2460, 4750, 3664, 3665, 4684, 5122, 3702, 3703, 5056
2461, 3667, 4751, 4815, 3666, 3705, 5123, 5187, 3704
2462, 4815, 4751, 4819, 4840, 5187, 5123, 5191, 5212
2463, 3670, 4748, 4739, 3669, 3708, 5120, 5111, 3707
2464, 4744, 4739, 4696, 4814, 5116, 5111, 5068, 5186
2465, 4696, 4739, 4748, 4911, 5068, 5111, 5120, 5283
2466, 4916, 3671, 3672, 4733, 5288, 3709, 3710, 5105
2467, 4918, 4901, 4733, 4707, 5290, 5273, 5105, 5079
2468, 4742, 4785, 4816, 4740, 5114, 5157, 5188, 5112
2469, 4783, 4791, 3580, 3581, 5155, 5163, 3592, 3593
2470, 4783, 4831, 4994, 4791, 5155, 5203, 5366, 5163
2471, 4999, 4709, 4924, 4917, 5371, 5081, 5296, 5289
2472, 4927, 4941, 4933, 4703, 5299, 5313, 5305, 5075
2473, 4937, 4920, 4933, 5028, 5309, 5292, 5305, 5400
2474, 4925, 4945, 4942, 5025, 5297, 5317, 5314, 5397
2475, 4910, 5024, 5020, 4871, 5282, 5396, 5392, 5243
2476, 1544, 4768, 4761, 1543, 1491, 5140, 5133, 1490
2477, 4992, 4761, 4768, 4835, 5364, 5133, 5140, 5207
2478, 4760, 4764, 1546, 1547, 5132, 5136, 1493, 1494
2479, 4680, 4760, 1547, 1548, 5052, 5132, 1494, 1495
2480, 4831, 4783, 4787, 4877, 5203, 5155, 5159, 5249
2481, 3581, 3582, 4787, 4783, 3593, 3594, 5159, 5155
2482, 4954, 4832, 4712, 4790, 5326, 5204, 5084, 5162
2483, 4877, 4787, 4790, 4712, 5249, 5159, 5162, 5084
2484, 4933, 4941, 4946, 5021, 5305, 5313, 5318, 5393
2485, 4943, 4922, 4915, 4699, 5315, 5294, 5287, 5071
2486, 4693, 4880, 4893, 4934, 5065, 5252, 5265, 5306
2487, 4860, 5002, 4687, 5020, 5232, 5374, 5059, 5392
2488, 4772, 4829, 1541, 1542, 5144, 5201, 1488, 1489
2489, 4761, 4992, 4820, 4772, 5133, 5364, 5192, 5144
2490, 4770, 4768, 1544, 1545, 5142, 5140, 1491, 1492
2491, 3586, 4788, 4784, 3585, 3598, 5160, 5156, 3597
2492, 4989, 4950, 4788, 4789, 5361, 5322, 5160, 5161
2493, 4719, 4803, 4825, 4701, 5091, 5175, 5197, 5073
2494, 4850, 4862, 4896, 4803, 5222, 5234, 5268, 5175
2495, 4726, 3618, 3619, 4729, 5098, 3628, 3629, 5101
2496, 3551,  465,  407, 4724, 3556,  464,  406, 5096
2497, 4722, 4720, 3547, 3548, 5094, 5092, 3552, 3553
2498, 4717, 4809, 4807, 4691, 5089, 5181, 5179, 5063
2499, 4829, 4932,  235, 1541, 5201, 5304,  236, 1488
2500, 4906, 4907, 4842, 4902, 5278, 5279, 5214, 5274
2501, 4906, 4908, 4886, 5014, 5278, 5280, 5258, 5386
2502, 4897, 4881, 4886, 4915, 5269, 5253, 5258, 5287
2503, 3588, 4786, 4789, 3587, 3600, 5158, 5161, 3599
2504, 4691, 3620, 3621, 4717, 5063, 3630, 3631, 5089
2505, 4809, 4717, 4720, 4722, 5181, 5089, 5092, 5094
2506, 4808, 4735, 4734, 4771, 5180, 5107, 5106, 5143
2507, 1571, 4985, 4984, 1570, 1518, 5357, 5356, 1517
2508, 4676, 4964, 4973, 4974, 5048, 5336, 5345, 5346
2509, 4838, 4826, 4762, 4997, 5210, 5198, 5134, 5369
2510, 4996, 4763, 4773, 4659, 5368, 5135, 5145, 5031
2511, 4889, 4665, 4865, 4664, 5261, 5037, 5237, 5036
2512, 1588, 1589, 4976, 4903, 1535, 1536, 5348, 5275
2513, 4996, 4899, 5012, 4997, 5368, 5271, 5384, 5369
2514, 4867, 4844, 4823, 4670, 5239, 5216, 5195, 5042
2515, 3761, 3762, 4718, 4778, 3771, 3772, 5090, 5150
2516, 4683, 4919, 4845, 4795, 5055, 5291, 5217, 5167
2517, 4764, 4802, 4853, 4683, 5136, 5174, 5225, 5055
2518, 5018, 4887, 4910, 4871, 5390, 5259, 5282, 5243
2519, 4905, 4895, 4866, 4888, 5277, 5267, 5238, 5260
2520, 4727, 3617, 3618, 4726, 5099, 3627, 3628, 5098
2521, 4689, 4907, 4692, 4798, 5061, 5279, 5064, 5170
2522, 4897, 4706, 4988, 4881, 5269, 5078, 5360, 5253
2523, 4701, 4825, 4824, 4728, 5073, 5197, 5196, 5100
2524, 3614, 4728, 4730, 3613, 3624, 5100, 5102, 3623
2525, 4810, 4809, 4722, 4721, 5182, 5181, 5094, 5093
2526, 4723, 4721, 3549, 3550, 5095, 5093, 3554, 3555
2527, 4701, 3615, 3616, 4719, 5073, 3625, 3626, 5091
2528, 4803, 4719, 4727, 4850, 5175, 5091, 5099, 5222
2529, 5002, 4860, 4880, 4856, 5374, 5232, 5252, 5228
2530, 5025, 4910, 4887, 4925, 5397, 5282, 5259, 5297
2531, 5003, 4876, 4894, 4846, 5375, 5248, 5266, 5218
2532, 4697, 4876, 4892, 4914, 5069, 5248, 5264, 5286
2533, 4694, 4893, 4880, 4860, 5066, 5265, 5252, 5232
2534, 4924, 4709, 4946, 4936, 5296, 5081, 5318, 5308
2535, 4927, 4703, 4930, 4923, 5299, 5075, 5302, 5295
2536, 4897, 4915, 4922, 4705, 5269, 5287, 5294, 5077
2537, 1219, 4781, 4786, 3588, 1220, 5153, 5158, 3600
2538, 4939, 4950, 4989, 4998, 5311, 5322, 5361, 5370
2539, 4877, 4712, 4917, 4884, 5249, 5084, 5289, 5256
2540, 4736, 4806, 4918, 4707, 5108, 5178, 5290, 5079
2541, 5019, 4947, 4939, 4944, 5391, 5319, 5311, 5316
2542, 4784, 4954, 3584, 3585, 5156, 5326, 3596, 3597
2543, 3676, 4745, 4749, 3675, 3714, 5117, 5121, 3713
2544, 4932, 4842, 4907, 4689, 5304, 5214, 5279, 5061
2545, 4716, 3562, 1210, 3565, 5088, 3563, 1211, 3569
2546, 4793, 4716, 3565, 3566, 5165, 5088, 3569, 3570
2547, 3567, 3568, 4792, 4834, 3571, 3572, 5164, 5206
2548, 3568, 1213, 3757, 4792, 3572, 1214, 3767, 5164
2549, 3760, 4776, 4777, 3759, 3770, 5148, 5149, 3769
2550, 4780, 4671, 3763, 3764, 5152, 5043, 3773, 3774
2551, 4752, 4779, 3765, 3766, 5124, 5151, 3775, 3776
2552, 4759, 4752, 3787, 3788, 5131, 5124, 3815, 3816
2553, 4662, 3792, 3793, 4900, 5034, 3820, 3821, 5272
2554, 4960, 3794, 3795, 4961, 5332, 3822, 3823, 5333
2555, 4972, 4973, 4964, 4965, 5344, 5345, 5336, 5337
2556, 4965, 4966, 4971, 4972, 5337, 5338, 5343, 5344
2557, 3807, 3808, 4969, 4968, 3835, 3836, 5341, 5340
2558, 4981, 1567, 1568, 4982, 5353, 1514, 1515, 5354
2559, 4978, 4977, 1563, 1564, 5350, 5349, 1510, 1511
2560, 1559, 3651, 3652, 1558, 1506, 3689, 3690, 1505
2561, 4956, 4955, 3655, 4741, 5328, 5327, 3693, 5113
2562, 4741, 3655, 3656, 4677, 5113, 3693, 3694, 5049
2563, 3656, 3657, 4735, 4677, 3694, 3695, 5107, 5049
2564, 3668, 4744, 4751, 3667, 3706, 5116, 5123, 3705
2565, 3669, 4739, 4744, 3668, 3707, 5111, 5116, 3706
2566, 4748, 3670, 3671, 4916, 5120, 3708, 3709, 5288
2567, 4733, 3672, 3673, 4707, 5105, 3710, 3711, 5079
2568, 4707, 3673, 3674, 4736, 5079, 3711, 3712, 5108
2569, 3677, 4737, 4745, 3676, 3715, 5109, 5117, 3714
2570, 3680, 4742, 4740, 3679, 3718, 5114, 5112, 3717
2571, 4790, 4787, 3582, 3583, 5162, 5159, 3594, 3595
2572, 3613, 4730, 4781, 1219, 3623, 5102, 5153, 1220
2573, 3615, 4701, 4728, 3614, 3625, 5073, 5100, 3624
2574, 4719, 3616, 3617, 4727, 5091, 3626, 3627, 5099
2575, 3620, 4691, 4729, 3619, 3630, 5063, 5101, 3629
2576, 4720, 3622, 1209, 3547, 5092, 3632, 1208, 3552
2577, 4963, 4724,  407, 4714, 5335, 5096,  406, 5086
2578, 4827, 4658, 4773, 1593, 5199, 5030, 5145, 1540
2579, 4976, 1589, 1590, 4826, 5348, 1536, 1537, 5198
2580, 4903, 4767, 1587, 1588, 5275, 5139, 1534, 1535
2581, 1580, 1581, 4975, 4974, 1527, 1528, 5347, 5346
2582, 1577, 4971, 3805, 1576, 1524, 5343, 3833, 1523
2583, 1574, 4969, 4970, 1573, 1521, 5341, 5342, 1520
2584, 1573, 4970, 4986, 1572, 1520, 5342, 5358, 1519
2585, 4984, 4983, 1569, 1570, 5356, 5355, 1516, 1517
2586, 1562, 1563, 4977, 4958, 1509, 1510, 5349, 5330
2587, 4958, 4957, 1561, 1562, 5330, 5329, 1508, 1509
2588, 1556, 1557, 4951, 4955, 1503, 1504, 5323, 5327
2589, 1554, 4959, 4808, 1553, 1501, 5331, 5180, 1500
2590, 4771, 4734, 4857, 4678, 5143, 5106, 5229, 5050
2591, 1550, 1551, 4678, 4769, 1497, 1498, 5050, 5141
2592, 4828, 4680, 1548, 1549, 5200, 5052, 1495, 1496
2593, 1545, 1546, 4764, 4770, 1492, 1493, 5136, 5142
2594, 4761, 4772, 1542, 1543, 5133, 5144, 1489, 1490
2595, 4962, 4714,  407,  235, 5334, 5086,  406,  236
2596, 4801, 4715, 4716, 4793, 5173, 5087, 5088, 5165
2597, 3622, 4720, 4717, 3621, 3632, 5092, 5089, 3631
2598, 4859, 4833, 4718, 4671, 5231, 5205, 5090, 5043
2599, 5009, 4875, 4718, 4833, 5381, 5247, 5090, 5205
2600, 4724, 4723, 3550, 3551, 5096, 5095, 3555, 3556
2601, 4794, 4810, 4721, 4723, 5166, 5182, 5093, 5095
2602, 4721, 4722, 3548, 3549, 5093, 5094, 3553, 3554
2603, 4690, 4807, 4809, 4810, 5062, 5179, 5181, 5182
2604, 4794, 4723, 4724, 4963, 5166, 5095, 5096, 5335
2605, 4689, 4798, 4725, 4962, 5061, 5170, 5097, 5334
2606, 5007, 4862, 4995, 4843, 5379, 5234, 5367, 5215
2607, 4729, 4812, 4657, 4726, 5101, 5184, 5029, 5098
2608, 4850, 4727, 4726, 4657, 5222, 5099, 5098, 5029
2609, 4988, 4730, 4728, 4824, 5360, 5102, 5100, 5196
2610, 4812, 4729, 4691, 4807, 5184, 5101, 5063, 5179
2611, 4706, 4781, 4730, 4988, 5078, 5153, 5102, 5360
2612, 3800, 4731, 4756, 3799, 3828, 5103, 5128, 3827
2613, 4747, 4732, 4679, 4811, 5119, 5104, 5051, 5183
2614, 4702, 4916, 4733, 4901, 5074, 5288, 5105, 5273
2615, 4735, 3657, 3658, 4734, 5107, 3695, 3696, 5106
2616, 4736, 3674, 3675, 4749, 5108, 3712, 3713, 5121
2617, 4745, 4737, 4713, 4818, 5117, 5109, 5085, 5190
2618, 4738, 4991, 4805, 4743, 5110, 5363, 5177, 5115
2619, 4782, 4785, 3578, 3579, 5154, 5157, 3590, 3591
2620, 4785, 4782, 4993, 4816, 5157, 5154, 5365, 5188
2621, 3655, 4955, 4951, 3654, 3693, 5327, 5323, 3692
2622, 4679, 4732, 4743, 4805, 5051, 5104, 5115, 5177
2623, 4751, 4744, 4814, 4819, 5123, 5116, 5186, 5191
2624, 4740, 4816, 4987, 4746, 5112, 5188, 5359, 5118
2625, 4769, 4678, 4857, 4811, 5141, 5050, 5229, 5183
2626, 4940, 4931, 4806, 4817, 5312, 5303, 5178, 5189
2627, 4800, 4750, 4684, 4851, 5172, 5122, 5056, 5223
2628, 4800, 4681, 4799, 4750, 5172, 5053, 5171, 5122
2629, 4759, 4672, 4779, 4752, 5131, 5044, 5151, 5124
2630, 4670, 4753, 4821, 4841, 5042, 5125, 5193, 5213
2631, 4672, 4759, 4754, 4823, 5044, 5131, 5126, 5195
2632, 4675, 4765, 4822, 4755, 5047, 5137, 5194, 5127
2633, 4757, 3797, 3798, 4755, 5129, 3825, 3826, 5127
2634, 4975, 4774, 4756, 4731, 5347, 5146, 5128, 5103
2635, 4836, 4758, 4757, 4673, 5208, 5130, 5129, 5045
2636, 5010, 4836, 4673, 4804, 5382, 5208, 5045, 5176
2637, 4836, 4663, 4961, 4758, 5208, 5035, 5333, 5130
2638, 4760, 4680, 4872, 4898, 5132, 5052, 5244, 5270
2639, 4898, 4802, 4764, 4760, 5270, 5174, 5136, 5132
2640, 4826, 1590, 1591, 4762, 5198, 1537, 1538, 5134
2641, 1593, 4773, 4763, 1592, 1540, 5145, 5135, 1539
2642, 4795, 4770, 4764, 4683, 5167, 5142, 5136, 5055
2643, 4822, 4765, 4766, 4673, 5194, 5137, 5138, 5045
2644, 4673, 4766, 4674, 4804, 5045, 5138, 5046, 5176
2645, 4903, 4889, 4854, 4767, 5275, 5261, 5226, 5139
2646, 4835, 4768, 4770, 4795, 5207, 5140, 5142, 5167
2647, 4734, 4747, 4811, 4857, 5106, 5119, 5183, 5229
2648, 4808, 4771, 1552, 1553, 5180, 5143, 1499, 1500
2649, 4820, 4688, 4829, 4772, 5192, 5060, 5201, 5144
2650, 4659, 4773, 4658, 4796, 5031, 5145, 5030, 5168
2651, 4666, 4775, 4777, 4797, 5038, 5147, 5149, 5169
2652, 4834, 4792, 4775, 4666, 5206, 5164, 5147, 5038
2653, 4777, 4776, 4858, 4667, 5149, 5148, 5230, 5039
2654, 4861, 4797, 4777, 4667, 5233, 5169, 5149, 5039
2655, 4948, 4780, 4779, 4672, 5320, 5152, 5151, 5044
2656, 4671, 4780, 4948, 4859, 5043, 5152, 5320, 5231
2657, 4830, 4786, 4781, 4706, 5202, 5158, 5153, 5078
2658, 4791, 4782, 3579, 3580, 5163, 5154, 3591, 3592
2659, 4832, 4710, 4947, 4999, 5204, 5082, 5319, 5371
2660, 4705, 4830, 4706, 4897, 5077, 5202, 5078, 5269
2661, 3587, 4789, 4788, 3586, 3599, 5161, 5160, 3598
2662, 4950, 4710, 4784, 4788, 5322, 5082, 5156, 5160
2663, 4989, 4789, 4786, 4830, 5361, 5161, 5158, 5202
2664, 4954, 4790, 3583, 3584, 5326, 5162, 3595, 3596
2665, 5004, 4794, 4963, 4714, 5376, 5166, 5335, 5086
2666, 4686, 4919, 4683, 4853, 5058, 5291, 5055, 5225
2667, 4835, 4795, 4845, 5001, 5207, 5167, 5217, 5373
2668, 4797, 4861, 4990, 4879, 5169, 5233, 5362, 5251
2669, 4862, 4850, 4657, 4995, 5234, 5222, 5029, 5367
2670, 4738, 4799, 4681, 4991, 5110, 5171, 5053, 5363
2671, 4909, 4883, 4682, 4869, 5281, 5255, 5054, 5241
2672, 4896, 4847, 4825, 4803, 5268, 5219, 5197, 5175
2673, 4804, 4674, 4767, 4854, 5176, 5046, 5139, 5226
2674, 4811, 4679, 4805, 4855, 5183, 5051, 5177, 5227
2675, 4870, 4852, 4805, 4991, 5242, 5224, 5177, 5363
2676, 4708, 4918, 4806, 4931, 5080, 5290, 5178, 5303
2677, 4873, 4812, 4807, 4690, 5245, 5184, 5179, 5062
2678, 5004, 4725, 4843, 4995, 5376, 5097, 5215, 5367
2679, 4875, 4668, 4858, 4813, 5247, 5040, 5230, 5185
2680, 4876, 5003, 4814, 4696, 5248, 5375, 5186, 5068
2681, 4846, 4819, 4814, 5003, 5218, 5191, 5186, 5375
2682, 3666, 4815, 4684, 3665, 3704, 5187, 5056, 3703
2683, 4994, 4987, 4816, 4993, 5366, 5359, 5188, 5365
2684, 4818, 4711, 4940, 4817, 5190, 5083, 5312, 5189
2685, 4711, 4818, 4713, 4831, 5083, 5190, 5085, 5203
2686, 4846, 4695, 4840, 4819, 5218, 5067, 5212, 5191
2687, 4900, 4848, 4821, 4662, 5272, 5220, 5193, 5034
2688, 4661, 4841, 4821, 4848, 5033, 5213, 5193, 5220
2689, 4824, 4700, 4881, 4988, 5196, 5072, 5253, 5360
2690, 4700, 4824, 4825, 4847, 5072, 5196, 5197, 5219
2691, 4838, 4665, 4976, 4826, 5210, 5037, 5348, 5198
2692, 4801, 4837,  181, 4715, 5173, 5209,  180, 5087
2693, 4932, 4829, 4688, 4842, 5304, 5201, 5060, 5214
2694, 4705, 4998, 4989, 4830, 5077, 5370, 5361, 5202
2695, 4987, 4994, 4831, 4713, 5359, 5366, 5203, 5085
2696, 4784, 4710, 4832, 4954, 5156, 5082, 5204, 5326
2697, 4832, 4999, 4917, 4712, 5204, 5371, 5289, 5084
2698, 4948, 4844, 4669, 4859, 5320, 5216, 5041, 5231
2699, 4797, 4879, 4834, 4666, 5169, 5251, 5206, 5038
2700, 5001, 4687, 4992, 4835, 5373, 5059, 5364, 5207
2701, 4879, 4990, 4837, 4801, 5251, 5362, 5209, 5173
2702, 4660, 4912, 4890, 4913, 5032, 5284, 5262, 5285
2703, 4990, 4861, 4849, 4839, 5362, 5233, 5221, 5211
2704, 4953, 4840, 4695, 4866, 5325, 5212, 5067, 5238
2705, 4895, 4685, 4953, 4866, 5267, 5057, 5325, 5238
2706, 4841, 5023, 4867, 4670, 5213, 5395, 5239, 5042
2707, 4902, 4842, 4688, 4856, 5274, 5214, 5060, 5228
2708, 4995, 4657, 4812, 4873, 5367, 5029, 5184, 5245
2709, 5007, 4843, 4725, 4798, 5379, 5215, 5097, 5170
2710, 4833, 4859, 4669, 5015, 5205, 5231, 5041, 5387
2711, 4864, 4847, 4896, 5008, 5236, 5219, 5268, 5380
2712, 4668, 4863, 4667, 4858, 5040, 5235, 5039, 5230
2713, 4863, 4796, 4658, 4849, 5235, 5168, 5030, 5221
2714, 4690, 5004, 4995, 4873, 5062, 5376, 5367, 5245
2715, 4909, 4869, 4851, 4685, 5281, 5241, 5223, 5057
2716, 4840, 4953, 4684, 4815, 5212, 5325, 5056, 5187
2717, 4802, 4883, 4909, 4853, 5174, 5255, 5281, 5225
2718, 4872, 4680, 4828, 4855, 5244, 5052, 5200, 5227
2719, 4693, 4902, 4856, 4880, 5065, 5274, 5228, 5252
2720, 4856, 4688, 4820, 5002, 5228, 5060, 5192, 5374
2721, 5020, 4687, 5001, 4871, 5392, 5059, 5373, 5243
2722, 5008, 4896, 4862, 5007, 5380, 5268, 5234, 5379
2723, 5014, 4864, 5008, 4692, 5386, 5236, 5380, 5064
2724, 5005, 4921, 4863, 4668, 5377, 5293, 5235, 5040
2725, 4902, 4693, 4908, 4906, 5274, 5065, 5280, 5278
2726, 5017, 4700, 4847, 4864, 5389, 5072, 5219, 5236
2727, 4865, 4891, 4874, 4664, 5237, 5263, 5246, 5036
2728, 4866, 4695, 4882, 4888, 5238, 5067, 5254, 5260
2729, 4949, 5016, 4867, 4912, 5321, 5388, 5239, 5284
2730, 4669, 4844, 4867, 5016, 5041, 5216, 5239, 5388
2731, 4905, 4887, 5018, 4686, 5277, 5259, 5390, 5058
2732, 4694, 4860, 5020, 5024, 5066, 5232, 5392, 5396
2733, 4891, 4661, 4848, 4874, 5263, 5033, 5220, 5246
2734, 4899, 4904, 4949, 4926, 5271, 5276, 5321, 5298
2735, 4887, 4882, 4894, 4925, 5259, 5254, 5266, 5297
2736, 4884, 4711, 4831, 4877, 5256, 5083, 5203, 5249
2737, 5006, 4664, 4874, 4878, 5378, 5036, 5246, 5250
2738, 4934, 4893, 4942, 4935, 5306, 5265, 5314, 5307
2739, 4886, 4881, 4700, 5017, 5258, 5253, 5072, 5389
2740, 4888, 4882, 4887, 4905, 5260, 5254, 5259, 5277
2741, 4853, 4909, 4685, 4895, 5225, 5281, 5057, 5267
2742, 4924, 4931, 4940, 5011, 5296, 5303, 5312, 5383
2743, 4949, 4904, 4885, 4921, 5321, 5276, 5257, 5293
2744, 4904, 4659, 4796, 4885, 5276, 5031, 5168, 5257
2745, 4699, 4915, 4886, 4908, 5071, 5287, 5258, 5280
2746, 4895, 4905, 4686, 4853, 5267, 5277, 5058, 5225
2747, 4854, 4889, 4664, 5006, 5226, 5261, 5036, 5378
2748, 4841, 4661, 4890, 5023, 5213, 5033, 5262, 5395
2749, 4891, 4865, 5013, 4913, 5263, 5237, 5385, 5285
2750, 4911, 4702, 4930, 4892, 5283, 5074, 5302, 5264
2751, 5025, 4942, 4893, 4694, 5397, 5314, 5265, 5066
2752, 4699, 4908, 4693, 4934, 5071, 5280, 5065, 5306
2753, 4876, 4697, 4952, 4894, 5248, 5069, 5324, 5266
2754, 4660, 5012, 4899, 4926, 5032, 5384, 5271, 5298
2755, 4976, 4665, 4889, 4903, 5348, 5037, 5261, 5275
2756, 5014, 4692, 4907, 4906, 5386, 5064, 5279, 5278
2757, 4798, 4692, 5008, 5007, 5170, 5064, 5380, 5379
2758, 4864, 5014, 4886, 5017, 5236, 5386, 5258, 5389
2759, 5018, 4845, 4919, 4686, 5390, 5217, 5291, 5058
2760, 4702, 4911, 4748, 4916, 5074, 5283, 5120, 5288
2761, 4933, 4920, 4914, 4703, 5305, 5292, 5286, 5075
2762, 4934, 4935, 4943, 4699, 5306, 5307, 5315, 5071
2763, 4708, 4936, 4927, 4923, 5080, 5308, 5299, 5295
2764, 4923, 4930, 4702, 4901, 5295, 5302, 5074, 5273
2765, 4892, 4930, 4703, 4914, 5264, 5302, 5075, 5286
2766, 4928, 4697, 4914, 4920, 5300, 5069, 5286, 5292
2767, 5009, 5005, 4668, 4875, 5381, 5377, 5040, 5247
2768, 4833, 5015, 5005, 5009, 5205, 5387, 5377, 5381
2769, 4937, 4938, 4943, 5027, 5309, 5310, 5315, 5399
2770, 4943, 4938, 4929, 4922, 5315, 5310, 5301, 5294
2771, 4708, 4931, 4924, 4936, 5080, 5303, 5296, 5308
2772, 4697, 4928, 5026, 4952, 5069, 5300, 5398, 5324
2773, 4660, 4926, 4949, 4912, 5032, 5298, 5321, 5284
2774, 4952, 5026, 4942, 4945, 5324, 5398, 5314, 5317
2775, 4998, 4929, 4944, 4939, 5370, 5301, 5316, 5311
2776, 4705, 4922, 4929, 4998, 5077, 5294, 5301, 5370
2777, 4962,  235, 4932, 4689, 5334,  236, 5304, 5061
2778, 5028, 4704, 4938, 4937, 5400, 5076, 5310, 5309
2779, 4935, 4698, 5027, 4943, 5307, 5070, 5399, 5315
2780, 4928, 4920, 4937, 5027, 5300, 5292, 5309, 5399
2781, 4944, 4929, 4938, 4704, 5316, 5301, 5310, 5076
2782, 4947, 4710, 4950, 4939, 5319, 5082, 5322, 5311
2783, 4711, 4884, 5011, 4940, 5083, 5256, 5383, 5312
2784, 4941, 4927, 4936, 4946, 5313, 5299, 5308, 5318
2785, 4694, 5024, 4910, 5025, 5066, 5396, 5282, 5397
2786, 5026, 4698, 4935, 4942, 5398, 5070, 5307, 5314
2787, 4894, 4952, 4945, 4925, 5266, 5324, 5317, 5297
2788, 5021, 4946, 4709, 5019, 5393, 5318, 5081, 5391
2789, 4709, 4999, 4947, 5019, 5081, 5371, 5319, 5391
2790, 5015, 5022, 4921, 5005, 5387, 5394, 5293, 5377
2791, 5016, 4949, 4921, 5022, 5388, 5321, 5293, 5394
2792, 4956, 1555, 1556, 4955, 5328, 1502, 1503, 5327
2793, 1555, 4956, 4959, 1554, 1502, 5328, 5331, 1501
2794, 3648, 4957, 4958, 3647, 3686, 5329, 5330, 3685
2795, 4959, 4677, 4735, 4808, 5331, 5049, 5107, 5180
2796, 4961, 4663, 4868, 4960, 5333, 5035, 5240, 5332
2797, 4962, 4725, 5004, 4714, 5334, 5097, 5376, 5086
2798, 4966, 4965, 3803, 3804, 5338, 5337, 3831, 3832
2799, 4966, 3804, 3805, 4971, 5338, 3832, 3833, 5343
2800, 1577, 1578, 4972, 4971, 1524, 1525, 5344, 5343
2801, 3805, 3806, 4967, 1576, 3833, 3834, 5339, 1523
2802, 4967, 3806, 3807, 4968, 5339, 3834, 3835, 5340
2803, 3809, 4970, 4969, 3808, 3837, 5342, 5341, 3836
2804, 1578, 1579, 4973, 4972, 1525, 1526, 5345, 5344
2805, 4974, 4973, 1579, 1580, 5346, 5345, 1526, 1527
2806, 1581, 1582, 4774, 4975, 1528, 1529, 5146, 5347
2807, 4958, 4977, 3646, 3647, 5330, 5349, 3684, 3685
2808, 1564, 1565, 4979, 4978, 1511, 1512, 5351, 5350
2809, 4978, 4979, 3644, 3645, 5350, 5351, 3682, 3683
2810, 4979, 4980, 3643, 3644, 5351, 5352, 3681, 3682
2811, 4982, 3814, 1224, 4981, 5354, 3842, 1223, 5353
2812, 4984, 3812, 3813, 4983, 5356, 3840, 3841, 5355
2813, 3811, 3812, 4984, 4985, 3839, 3840, 5356, 5357
2814, 4986, 4985, 1571, 1572, 5358, 5357, 1518, 1519
2815, 4970, 3809, 3810, 4986, 5342, 3837, 3838, 5358
2816, 4746, 4987, 4713, 4737, 5118, 5359, 5085, 5109
2817, 5002, 4820, 4992, 4687, 5374, 5192, 5364, 5059
2818, 4731, 4676, 4974, 4975, 5103, 5048, 5346, 5347
2819, 4994, 4993, 4782, 4791, 5366, 5365, 5154, 5163
2820, 4997, 4762, 4763, 4996, 5369, 5134, 5135, 5368
2821, 4878, 5000, 5010, 5006, 5250, 5372, 5382, 5378
2822, 4871, 5001, 4845, 5018, 5243, 5373, 5217, 5390
2823, 4794, 5004, 4690, 4810, 5166, 5376, 5062, 5182
2824, 5006, 5010, 4804, 4854, 5378, 5382, 5176, 5226
2825, 4800, 4870, 4991, 4681, 5172, 5242, 5363, 5053
2826, 4884, 4917, 4924, 5011, 5256, 5289, 5296, 5383
2827, 4913, 5013, 5012, 4660, 5285, 5385, 5384, 5032
2828, 5013, 4838, 4997, 5012, 5385, 5210, 5369, 5384
2829, 4704, 5021, 5019, 4944, 5076, 5393, 5391, 5316
2830, 5016, 5022, 5015, 4669, 5388, 5394, 5387, 5041
2831, 4698, 5026, 4928, 5027, 5070, 5398, 5300, 5399
2832, 4704, 5028, 4933, 5021, 5076, 5400, 5305, 5393
2833, 1540,  180, 5209, 5199, 1487,  179, 5581, 5571
2834, 1539, 5135, 5134, 1538, 1486, 5507, 5506, 1485
2835, 5210, 5385, 5237, 5037, 5582, 5757, 5609, 5409
2836, 5250, 5246, 5220, 5240, 5622, 5618, 5592, 5612
2837, 5332, 5240, 5220, 5272, 5704, 5612, 5592, 5644
2838, 3821, 3822, 5332, 5272, 3849, 3850, 5704, 5644
2839, 5333, 3823, 3824, 5130, 5705, 3851, 3852, 5502
2840, 3825, 5129, 5130, 3824, 3853, 5501, 5502, 3852
2841, 5045, 5129, 5127, 5194, 5417, 5501, 5499, 5566
2842, 5137, 5047, 1530, 1531, 5509, 5419, 1477, 1478
2843, 1531, 1532, 5138, 5137, 1478, 1479, 5510, 5509
2844, 1532, 1533, 5046, 5138, 1479, 1480, 5418, 5510
2845, 1533, 1534, 5139, 5046, 1480, 1481, 5511, 5418
2846, 5372, 5250, 5240, 5035, 5744, 5622, 5612, 5407
2847, 5035, 5208, 5382, 5372, 5407, 5580, 5754, 5744
2848, 3563, 5088,  348,  522, 3564, 5460,  349,  523
2849,  180,  348, 5088, 5087,  179,  349, 5460, 5459
2850, 5251, 5173, 5165, 5206, 5623, 5545, 5537, 5578
2851, 3768, 5147, 5164, 3767, 3778, 5519, 5536, 3777
2852, 5147, 3768, 3769, 5149, 5519, 3778, 3779, 5521
2853, 3771, 5150, 5148, 3770, 3781, 5522, 5520, 3780
2854, 5148, 5150, 5185, 5230, 5520, 5522, 5557, 5602
2855, 5199, 5211, 5221, 5030, 5571, 5583, 5593, 5402
2856, 5233, 5039, 5235, 5221, 5605, 5411, 5607, 5593
2857, 5211, 5199, 5209, 5362, 5583, 5571, 5581, 5734
2858, 5206, 5165, 3570, 3571, 5578, 5537, 3574, 3575
2859, 5090, 3772, 3773, 5043, 5462, 3782, 3783, 5415
2860, 5150, 5090, 5247, 5185, 5522, 5462, 5619, 5557
2861, 5031, 5276, 5271, 5368, 5403, 5648, 5643, 5740
2862, 5168, 5235, 5293, 5257, 5540, 5607, 5665, 5629
2863, 3774, 3775, 5151, 5152, 3784, 3785, 5523, 5524
2864, 1226, 3815, 5124, 3776, 1227, 3843, 5496, 3786
2865, 3816, 3817, 5126, 5131, 3844, 3845, 5498, 5503
2866, 5126, 5125, 5042, 5195, 5498, 5497, 5414, 5567
2867, 5193, 5125, 3818, 3819, 5565, 5497, 3846, 3847
2868, 3817, 3818, 5125, 5126, 3845, 3846, 5497, 5498
2869, 5263, 5285, 5262, 5033, 5635, 5657, 5634, 5405
2870, 5284, 5239, 5395, 5262, 5656, 5611, 5767, 5634
2871, 5044, 5195, 5216, 5320, 5416, 5567, 5588, 5692
2872, 3819, 3820, 5034, 5193, 3847, 3848, 5406, 5565
2873, 5127, 3826, 3827, 5128, 5499, 3854, 3855, 5500
2874, 3830, 5336, 5048, 3829, 3858, 5708, 5420, 3857
2875, 5341, 1521, 1522, 5340, 5713, 1468, 1469, 5712
2876, 1523, 5339, 5340, 1522, 1470, 5711, 5712, 1469
2877, 3839, 5357, 5358, 3838, 3867, 5729, 5730, 3866
2878, 3842, 5354, 5355, 3841, 3870, 5726, 5727, 3869
2879, 1515, 1516, 5355, 5354, 1462, 1463, 5727, 5726
2880, 1223, 3681, 5352, 5353, 1222, 3719, 5724, 5725
2881, 1513, 1514, 5353, 5352, 1460, 1461, 5725, 5724
2882, 5352, 5351, 1512, 1513, 5724, 5723, 1459, 1460
2883, 3683, 3684, 5349, 5350, 3721, 3722, 5721, 5722
2884, 5329, 3686, 3687, 1508, 5701, 3724, 3725, 1455
2885, 1508, 3687, 3688, 1507, 1455, 3725, 3726, 1454
2886, 1507, 3688, 3689, 1506, 1454, 3726, 3727, 1453
2887, 1505, 3690, 3691, 1504, 1452, 3728, 3729, 1451
2888, 3692, 5323, 1504, 3691, 3730, 5695, 1451, 3729
2889, 5143, 5050, 1498, 1499, 5515, 5422, 1445, 1446
2890, 1496, 1497, 5141, 5200, 1443, 1444, 5513, 5572
2891, 5224, 5054, 5270, 5244, 5596, 5426, 5642, 5616
2892, 5054, 5255, 5174, 5270, 5426, 5627, 5546, 5642
2893, 5067, 5218, 5266, 5254, 5439, 5590, 5638, 5626
2894, 5283, 5264, 5248, 5068, 5655, 5636, 5620, 5440
2895, 5080, 5295, 5273, 5290, 5452, 5667, 5645, 5662
2896, 5108, 5121, 5189, 5178, 5480, 5493, 5561, 5550
2897, 5109, 3715, 3716, 5118, 5481, 3753, 3754, 5490
2898, 5121, 5117, 5190, 5189, 5493, 5489, 5562, 5561
2899, 5118, 3716, 3717, 5112, 5490, 3754, 3755, 5484
2900, 1217, 3589, 5114, 3718, 1216, 3601, 5486, 3756
2901, 3589, 3590, 5157, 5114, 3601, 3602, 5529, 5486
2902, 5146, 5047, 5127, 5128, 5518, 5419, 5499, 5500
2903, 5047, 5146, 1529, 1530, 5419, 5518, 1476, 1477
2904, 3829, 5048, 5103, 3828, 3857, 5420, 5475, 3856
2905, 5337, 5336, 3830, 3831, 5709, 5708, 3858, 3859
2906, 5328, 5113, 5049, 5331, 5700, 5485, 5421, 5703
2907, 3698, 5104, 5119, 3697, 3736, 5476, 5491, 3735
2908, 3697, 5119, 5106, 3696, 3735, 5491, 5478, 3734
2909, 5200, 5141, 5183, 5227, 5572, 5513, 5555, 5599
2910, 5104, 3698, 3699, 5115, 5476, 3736, 3737, 5487
2911, 5115, 3699, 3700, 5110, 5487, 3737, 3738, 5482
2912, 5224, 5242, 5241, 5054, 5596, 5614, 5613, 5426
2913, 5224, 5244, 5227, 5177, 5596, 5616, 5599, 5549
2914, 5110, 3700, 3701, 5171, 5482, 3738, 3739, 5543
2915, 5171, 3701, 3702, 5122, 5543, 3739, 3740, 5494
2916, 5057, 5223, 5056, 5325, 5429, 5595, 5428, 5697
2917, 5242, 5172, 5223, 5241, 5614, 5544, 5595, 5613
2918, 5122, 3702, 3703, 5056, 5494, 3740, 3741, 5428
2919, 3705, 5123, 5187, 3704, 3743, 5495, 5559, 3742
2920, 5187, 5123, 5191, 5212, 5559, 5495, 5563, 5584
2921, 3708, 5120, 5111, 3707, 3746, 5492, 5483, 3745
2922, 5116, 5111, 5068, 5186, 5488, 5483, 5440, 5558
2923, 5068, 5111, 5120, 5283, 5440, 5483, 5492, 5655
2924, 5288, 3709, 3710, 5105, 5660, 3747, 3748, 5477
2925, 5290, 5273, 5105, 5079, 5662, 5645, 5477, 5451
2926, 5114, 5157, 5188, 5112, 5486, 5529, 5560, 5484
2927, 5155, 5163, 3592, 3593, 5527, 5535, 3604, 3605
2928, 5155, 5203, 5366, 5163, 5527, 5575, 5738, 5535
2929, 5371, 5081, 5296, 5289, 5743, 5453, 5668, 5661
2930, 5299, 5313, 5305, 5075, 5671, 5685, 5677, 5447
2931, 5309, 5292, 5305, 5400, 5681, 5664, 5677, 5772
2932, 5297, 5317, 5314, 5397, 5669, 5689, 5686, 5769
2933, 5282, 5396, 5392, 5243, 5654, 5768, 5764, 5615
2934, 1491, 5140, 5133, 1490, 1438, 5512, 5505, 1437
2935, 5364, 5133, 5140, 5207, 5736, 5505, 5512, 5579
2936, 5132, 5136, 1493, 1494, 5504, 5508, 1440, 1441
2937, 5052, 5132, 1494, 1495, 5424, 5504, 1441, 1442
2938, 5203, 5155, 5159, 5249, 5575, 5527, 5531, 5621
2939, 3593, 3594, 5159, 5155, 3605, 3606, 5531, 5527
2940, 5326, 5204, 5084, 5162, 5698, 5576, 5456, 5534
2941, 5249, 5159, 5162, 5084, 5621, 5531, 5534, 5456
2942, 5305, 5313, 5318, 5393, 5677, 5685, 5690, 5765
2943, 5315, 5294, 5287, 5071, 5687, 5666, 5659, 5443
2944, 5065, 5252, 5265, 5306, 5437, 5624, 5637, 5678
2945, 5232, 5374, 5059, 5392, 5604, 5746, 5431, 5764
2946, 5144, 5201, 1488, 1489, 5516, 5573, 1435, 1436
2947, 5133, 5364, 5192, 5144, 5505, 5736, 5564, 5516
2948, 5142, 5140, 1491, 1492, 5514, 5512, 1438, 1439
2949, 3598, 5160, 5156, 3597, 3610, 5532, 5528, 3609
2950, 5361, 5322, 5160, 5161, 5733, 5694, 5532, 5533
2951, 5091, 5175, 5197, 5073, 5463, 5547, 5569, 5445
2952, 5222, 5234, 5268, 5175, 5594, 5606, 5640, 5547
2953, 5098, 3628, 3629, 5101, 5470, 3638, 3639, 5473
2954, 3556,  464,  406, 5096, 3561,  463,  405, 5468
2955, 5094, 5092, 3552, 3553, 5466, 5464, 3557, 3558
2956, 5089, 5181, 5179, 5063, 5461, 5553, 5551, 5435
2957, 5201, 5304,  236, 1488, 5573, 5676,  237, 1435
2958, 5278, 5279, 5214, 5274, 5650, 5651, 5586, 5646
2959, 5278, 5280, 5258, 5386, 5650, 5652, 5630, 5758
2960, 5269, 5253, 5258, 5287, 5641, 5625, 5630, 5659
2961, 3600, 5158, 5161, 3599, 3612, 5530, 5533, 3611
2962, 5063, 3630, 3631, 5089, 5435, 3640, 3641, 5461
2963, 5181, 5089, 5092, 5094, 5553, 5461, 5464, 5466
2964, 5180, 5107, 5106, 5143, 5552, 5479, 5478, 5515
2965, 1518, 5357, 5356, 1517, 1465, 5729, 5728, 1464
2966, 5048, 5336, 5345, 5346, 5420, 5708, 5717, 5718
2967, 5210, 5198, 5134, 5369, 5582, 5570, 5506, 5741
2968, 5368, 5135, 5145, 5031, 5740, 5507, 5517, 5403
2969, 5261, 5037, 5237, 5036, 5633, 5409, 5609, 5408
2970, 1535, 1536, 5348, 5275, 1482, 1483, 5720, 5647
2971, 5368, 5271, 5384, 5369, 5740, 5643, 5756, 5741
2972, 5239, 5216, 5195, 5042, 5611, 5588, 5567, 5414
2973, 3771, 3772, 5090, 5150, 3781, 3782, 5462, 5522
2974, 5055, 5291, 5217, 5167, 5427, 5663, 5589, 5539
2975, 5136, 5174, 5225, 5055, 5508, 5546, 5597, 5427
2976, 5390, 5259, 5282, 5243, 5762, 5631, 5654, 5615
2977, 5277, 5267, 5238, 5260, 5649, 5639, 5610, 5632
2978, 5099, 3627, 3628, 5098, 5471, 3637, 3638, 5470
2979, 5061, 5279, 5064, 5170, 5433, 5651, 5436, 5542
2980, 5269, 5078, 5360, 5253, 5641, 5450, 5732, 5625
2981, 5073, 5197, 5196, 5100, 5445, 5569, 5568, 5472
2982, 3624, 5100, 5102, 3623, 3634, 5472, 5474, 3633
2983, 5182, 5181, 5094, 5093, 5554, 5553, 5466, 5465
2984, 5095, 5093, 3554, 3555, 5467, 5465, 3559, 3560
2985, 5073, 3625, 3626, 5091, 5445, 3635, 3636, 5463
2986, 5175, 5091, 5099, 5222, 5547, 5463, 5471, 5594
2987, 5374, 5232, 5252, 5228, 5746, 5604, 5624, 5600
2988, 5397, 5282, 5259, 5297, 5769, 5654, 5631, 5669
2989, 5375, 5248, 5266, 5218, 5747, 5620, 5638, 5590
2990, 5069, 5248, 5264, 5286, 5441, 5620, 5636, 5658
2991, 5066, 5265, 5252, 5232, 5438, 5637, 5624, 5604
2992, 5296, 5081, 5318, 5308, 5668, 5453, 5690, 5680
2993, 5299, 5075, 5302, 5295, 5671, 5447, 5674, 5667
2994, 5269, 5287, 5294, 5077, 5641, 5659, 5666, 5449
2995, 1220, 5153, 5158, 3600, 1221, 5525, 5530, 3612
2996, 5311, 5322, 5361, 5370, 5683, 5694, 5733, 5742
2997, 5249, 5084, 5289, 5256, 5621, 5456, 5661, 5628
2998, 5108, 5178, 5290, 5079, 5480, 5550, 5662, 5451
2999, 5391, 5319, 5311, 5316, 5763, 5691, 5683, 5688
3000, 5156, 5326, 3596, 3597, 5528, 5698, 3608, 3609
3001, 3714, 5117, 5121, 3713, 3752, 5489, 5493, 3751
3002, 5304, 5214, 5279, 5061, 5676, 5586, 5651, 5433
3003, 5088, 3563, 1211, 3569, 5460, 3564, 1212, 3573
3004, 5165, 5088, 3569, 3570, 5537, 5460, 3573, 3574
3005, 3571, 3572, 5164, 5206, 3575, 3576, 5536, 5578
3006, 3572, 1214, 3767, 5164, 3576, 1215, 3777, 5536
3007, 3770, 5148, 5149, 3769, 3780, 5520, 5521, 3779
3008, 5152, 5043, 3773, 3774, 5524, 5415, 3783, 3784
3009, 5124, 5151, 3775, 3776, 5496, 5523, 3785, 3786
3010, 5131, 5124, 3815, 3816, 5503, 5496, 3843, 3844
3011, 5034, 3820, 3821, 5272, 5406, 3848, 3849, 5644
3012, 5332, 3822, 3823, 5333, 5704, 3850, 3851, 5705
3013, 5344, 5345, 5336, 5337, 5716, 5717, 5708, 5709
3014, 5337, 5338, 5343, 5344, 5709, 5710, 5715, 5716
3015, 3835, 3836, 5341, 5340, 3863, 3864, 5713, 5712
3016, 5353, 1514, 1515, 5354, 5725, 1461, 1462, 5726
3017, 5350, 5349, 1510, 1511, 5722, 5721, 1457, 1458
3018, 1506, 3689, 3690, 1505, 1453, 3727, 3728, 1452
3019, 5328, 5327, 3693, 5113, 5700, 5699, 3731, 5485
3020, 5113, 3693, 3694, 5049, 5485, 3731, 3732, 5421
3021, 3694, 3695, 5107, 5049, 3732, 3733, 5479, 5421
3022, 3706, 5116, 5123, 3705, 3744, 5488, 5495, 3743
3023, 3707, 5111, 5116, 3706, 3745, 5483, 5488, 3744
3024, 5120, 3708, 3709, 5288, 5492, 3746, 3747, 5660
3025, 5105, 3710, 3711, 5079, 5477, 3748, 3749, 5451
3026, 5079, 3711, 3712, 5108, 5451, 3749, 3750, 5480
3027, 3715, 5109, 5117, 3714, 3753, 5481, 5489, 3752
3028, 3718, 5114, 5112, 3717, 3756, 5486, 5484, 3755
3029, 5162, 5159, 3594, 3595, 5534, 5531, 3606, 3607
3030, 3623, 5102, 5153, 1220, 3633, 5474, 5525, 1221
3031, 3625, 5073, 5100, 3624, 3635, 5445, 5472, 3634
3032, 5091, 3626, 3627, 5099, 5463, 3636, 3637, 5471
3033, 3630, 5063, 5101, 3629, 3640, 5435, 5473, 3639
3034, 5092, 3632, 1208, 3552, 5464, 3642, 1207, 3557
3035, 5335, 5096,  406, 5086, 5707, 5468,  405, 5458
3036, 5199, 5030, 5145, 1540, 5571, 5402, 5517, 1487
3037, 5348, 1536, 1537, 5198, 5720, 1483, 1484, 5570
3038, 5275, 5139, 1534, 1535, 5647, 5511, 1481, 1482
3039, 1527, 1528, 5347, 5346, 1474, 1475, 5719, 5718
3040, 1524, 5343, 3833, 1523, 1471, 5715, 3861, 1470
3041, 1521, 5341, 5342, 1520, 1468, 5713, 5714, 1467
3042, 1520, 5342, 5358, 1519, 1467, 5714, 5730, 1466
3043, 5356, 5355, 1516, 1517, 5728, 5727, 1463, 1464
3044, 1509, 1510, 5349, 5330, 1456, 1457, 5721, 5702
3045, 5330, 5329, 1508, 1509, 5702, 5701, 1455, 1456
3046, 1503, 1504, 5323, 5327, 1450, 1451, 5695, 5699
3047, 1501, 5331, 5180, 1500, 1448, 5703, 5552, 1447
3048, 5143, 5106, 5229, 5050, 5515, 5478, 5601, 5422
3049, 1497, 1498, 5050, 5141, 1444, 1445, 5422, 5513
3050, 5200, 5052, 1495, 1496, 5572, 5424, 1442, 1443
3051, 1492, 1493, 5136, 5142, 1439, 1440, 5508, 5514
3052, 5133, 5144, 1489, 1490, 5505, 5516, 1436, 1437
3053, 5334, 5086,  406,  236, 5706, 5458,  405,  237
3054, 5173, 5087, 5088, 5165, 5545, 5459, 5460, 5537
3055, 3632, 5092, 5089, 3631, 3642, 5464, 5461, 3641
3056, 5231, 5205, 5090, 5043, 5603, 5577, 5462, 5415
3057, 5381, 5247, 5090, 5205, 5753, 5619, 5462, 5577
3058, 5096, 5095, 3555, 3556, 5468, 5467, 3560, 3561
3059, 5166, 5182, 5093, 5095, 5538, 5554, 5465, 5467
3060, 5093, 5094, 3553, 3554, 5465, 5466, 3558, 3559
3061, 5062, 5179, 5181, 5182, 5434, 5551, 5553, 5554
3062, 5166, 5095, 5096, 5335, 5538, 5467, 5468, 5707
3063, 5061, 5170, 5097, 5334, 5433, 5542, 5469, 5706
3064, 5379, 5234, 5367, 5215, 5751, 5606, 5739, 5587
3065, 5101, 5184, 5029, 5098, 5473, 5556, 5401, 5470
3066, 5222, 5099, 5098, 5029, 5594, 5471, 5470, 5401
3067, 5360, 5102, 5100, 5196, 5732, 5474, 5472, 5568
3068, 5184, 5101, 5063, 5179, 5556, 5473, 5435, 5551
3069, 5078, 5153, 5102, 5360, 5450, 5525, 5474, 5732
3070, 3828, 5103, 5128, 3827, 3856, 5475, 5500, 3855
3071, 5119, 5104, 5051, 5183, 5491, 5476, 5423, 5555
3072, 5074, 5288, 5105, 5273, 5446, 5660, 5477, 5645
3073, 5107, 3695, 3696, 5106, 5479, 3733, 3734, 5478
3074, 5108, 3712, 3713, 5121, 5480, 3750, 3751, 5493
3075, 5117, 5109, 5085, 5190, 5489, 5481, 5457, 5562
3076, 5110, 5363, 5177, 5115, 5482, 5735, 5549, 5487
3077, 5154, 5157, 3590, 3591, 5526, 5529, 3602, 3603
3078, 5157, 5154, 5365, 5188, 5529, 5526, 5737, 5560
3079, 3693, 5327, 5323, 3692, 3731, 5699, 5695, 3730
3080, 5051, 5104, 5115, 5177, 5423, 5476, 5487, 5549
3081, 5123, 5116, 5186, 5191, 5495, 5488, 5558, 5563
3082, 5112, 5188, 5359, 5118, 5484, 5560, 5731, 5490
3083, 5141, 5050, 5229, 5183, 5513, 5422, 5601, 5555
3084, 5312, 5303, 5178, 5189, 5684, 5675, 5550, 5561
3085, 5172, 5122, 5056, 5223, 5544, 5494, 5428, 5595
3086, 5172, 5053, 5171, 5122, 5544, 5425, 5543, 5494
3087, 5131, 5044, 5151, 5124, 5503, 5416, 5523, 5496
3088, 5042, 5125, 5193, 5213, 5414, 5497, 5565, 5585
3089, 5044, 5131, 5126, 5195, 5416, 5503, 5498, 5567
3090, 5047, 5137, 5194, 5127, 5419, 5509, 5566, 5499
3091, 5129, 3825, 3826, 5127, 5501, 3853, 3854, 5499
3092, 5347, 5146, 5128, 5103, 5719, 5518, 5500, 5475
3093, 5208, 5130, 5129, 5045, 5580, 5502, 5501, 5417
3094, 5382, 5208, 5045, 5176, 5754, 5580, 5417, 5548
3095, 5208, 5035, 5333, 5130, 5580, 5407, 5705, 5502
3096, 5132, 5052, 5244, 5270, 5504, 5424, 5616, 5642
3097, 5270, 5174, 5136, 5132, 5642, 5546, 5508, 5504
3098, 5198, 1537, 1538, 5134, 5570, 1484, 1485, 5506
3099, 1540, 5145, 5135, 1539, 1487, 5517, 5507, 1486
3100, 5167, 5142, 5136, 5055, 5539, 5514, 5508, 5427
3101, 5194, 5137, 5138, 5045, 5566, 5509, 5510, 5417
3102, 5045, 5138, 5046, 5176, 5417, 5510, 5418, 5548
3103, 5275, 5261, 5226, 5139, 5647, 5633, 5598, 5511
3104, 5207, 5140, 5142, 5167, 5579, 5512, 5514, 5539
3105, 5106, 5119, 5183, 5229, 5478, 5491, 5555, 5601
3106, 5180, 5143, 1499, 1500, 5552, 5515, 1446, 1447
3107, 5192, 5060, 5201, 5144, 5564, 5432, 5573, 5516
3108, 5031, 5145, 5030, 5168, 5403, 5517, 5402, 5540
3109, 5038, 5147, 5149, 5169, 5410, 5519, 5521, 5541
3110, 5206, 5164, 5147, 5038, 5578, 5536, 5519, 5410
3111, 5149, 5148, 5230, 5039, 5521, 5520, 5602, 5411
3112, 5233, 5169, 5149, 5039, 5605, 5541, 5521, 5411
3113, 5320, 5152, 5151, 5044, 5692, 5524, 5523, 5416
3114, 5043, 5152, 5320, 5231, 5415, 5524, 5692, 5603
3115, 5202, 5158, 5153, 5078, 5574, 5530, 5525, 5450
3116, 5163, 5154, 3591, 3592, 5535, 5526, 3603, 3604
3117, 5204, 5082, 5319, 5371, 5576, 5454, 5691, 5743
3118, 5077, 5202, 5078, 5269, 5449, 5574, 5450, 5641
3119, 3599, 5161, 5160, 3598, 3611, 5533, 5532, 3610
3120, 5322, 5082, 5156, 5160, 5694, 5454, 5528, 5532
3121, 5361, 5161, 5158, 5202, 5733, 5533, 5530, 5574
3122, 5326, 5162, 3595, 3596, 5698, 5534, 3607, 3608
3123, 5376, 5166, 5335, 5086, 5748, 5538, 5707, 5458
3124, 5058, 5291, 5055, 5225, 5430, 5663, 5427, 5597
3125, 5207, 5167, 5217, 5373, 5579, 5539, 5589, 5745
3126, 5169, 5233, 5362, 5251, 5541, 5605, 5734, 5623
3127, 5234, 5222, 5029, 5367, 5606, 5594, 5401, 5739
3128, 5110, 5171, 5053, 5363, 5482, 5543, 5425, 5735
3129, 5281, 5255, 5054, 5241, 5653, 5627, 5426, 5613
3130, 5268, 5219, 5197, 5175, 5640, 5591, 5569, 5547
3131, 5176, 5046, 5139, 5226, 5548, 5418, 5511, 5598
3132, 5183, 5051, 5177, 5227, 5555, 5423, 5549, 5599
3133, 5242, 5224, 5177, 5363, 5614, 5596, 5549, 5735
3134, 5080, 5290, 5178, 5303, 5452, 5662, 5550, 5675
3135, 5245, 5184, 5179, 5062, 5617, 5556, 5551, 5434
3136, 5376, 5097, 5215, 5367, 5748, 5469, 5587, 5739
3137, 5247, 5040, 5230, 5185, 5619, 5412, 5602, 5557
3138, 5248, 5375, 5186, 5068, 5620, 5747, 5558, 5440
3139, 5218, 5191, 5186, 5375, 5590, 5563, 5558, 5747
3140, 3704, 5187, 5056, 3703, 3742, 5559, 5428, 3741
3141, 5366, 5359, 5188, 5365, 5738, 5731, 5560, 5737
3142, 5190, 5083, 5312, 5189, 5562, 5455, 5684, 5561
3143, 5083, 5190, 5085, 5203, 5455, 5562, 5457, 5575
3144, 5218, 5067, 5212, 5191, 5590, 5439, 5584, 5563
3145, 5272, 5220, 5193, 5034, 5644, 5592, 5565, 5406
3146, 5033, 5213, 5193, 5220, 5405, 5585, 5565, 5592
3147, 5196, 5072, 5253, 5360, 5568, 5444, 5625, 5732
3148, 5072, 5196, 5197, 5219, 5444, 5568, 5569, 5591
3149, 5210, 5037, 5348, 5198, 5582, 5409, 5720, 5570
3150, 5173, 5209,  180, 5087, 5545, 5581,  179, 5459
3151, 5304, 5201, 5060, 5214, 5676, 5573, 5432, 5586
3152, 5077, 5370, 5361, 5202, 5449, 5742, 5733, 5574
3153, 5359, 5366, 5203, 5085, 5731, 5738, 5575, 5457
3154, 5156, 5082, 5204, 5326, 5528, 5454, 5576, 5698
3155, 5204, 5371, 5289, 5084, 5576, 5743, 5661, 5456
3156, 5320, 5216, 5041, 5231, 5692, 5588, 5413, 5603
3157, 5169, 5251, 5206, 5038, 5541, 5623, 5578, 5410
3158, 5373, 5059, 5364, 5207, 5745, 5431, 5736, 5579
3159, 5251, 5362, 5209, 5173, 5623, 5734, 5581, 5545
3160, 5032, 5284, 5262, 5285, 5404, 5656, 5634, 5657
3161, 5362, 5233, 5221, 5211, 5734, 5605, 5593, 5583
3162, 5325, 5212, 5067, 5238, 5697, 5584, 5439, 5610
3163, 5267, 5057, 5325, 5238, 5639, 5429, 5697, 5610
3164, 5213, 5395, 5239, 5042, 5585, 5767, 5611, 5414
3165, 5274, 5214, 5060, 5228, 5646, 5586, 5432, 5600
3166, 5367, 5029, 5184, 5245, 5739, 5401, 5556, 5617
3167, 5379, 5215, 5097, 5170, 5751, 5587, 5469, 5542
3168, 5205, 5231, 5041, 5387, 5577, 5603, 5413, 5759
3169, 5236, 5219, 5268, 5380, 5608, 5591, 5640, 5752
3170, 5040, 5235, 5039, 5230, 5412, 5607, 5411, 5602
3171, 5235, 5168, 5030, 5221, 5607, 5540, 5402, 5593
3172, 5062, 5376, 5367, 5245, 5434, 5748, 5739, 5617
3173, 5281, 5241, 5223, 5057, 5653, 5613, 5595, 5429
3174, 5212, 5325, 5056, 5187, 5584, 5697, 5428, 5559
3175, 5174, 5255, 5281, 5225, 5546, 5627, 5653, 5597
3176, 5244, 5052, 5200, 5227, 5616, 5424, 5572, 5599
3177, 5065, 5274, 5228, 5252, 5437, 5646, 5600, 5624
3178, 5228, 5060, 5192, 5374, 5600, 5432, 5564, 5746
3179, 5392, 5059, 5373, 5243, 5764, 5431, 5745, 5615
3180, 5380, 5268, 5234, 5379, 5752, 5640, 5606, 5751
3181, 5386, 5236, 5380, 5064, 5758, 5608, 5752, 5436
3182, 5377, 5293, 5235, 5040, 5749, 5665, 5607, 5412
3183, 5274, 5065, 5280, 5278, 5646, 5437, 5652, 5650
3184, 5389, 5072, 5219, 5236, 5761, 5444, 5591, 5608
3185, 5237, 5263, 5246, 5036, 5609, 5635, 5618, 5408
3186, 5238, 5067, 5254, 5260, 5610, 5439, 5626, 5632
3187, 5321, 5388, 5239, 5284, 5693, 5760, 5611, 5656
3188, 5041, 5216, 5239, 5388, 5413, 5588, 5611, 5760
3189, 5277, 5259, 5390, 5058, 5649, 5631, 5762, 5430
3190, 5066, 5232, 5392, 5396, 5438, 5604, 5764, 5768
3191, 5263, 5033, 5220, 5246, 5635, 5405, 5592, 5618
3192, 5271, 5276, 5321, 5298, 5643, 5648, 5693, 5670
3193, 5259, 5254, 5266, 5297, 5631, 5626, 5638, 5669
3194, 5256, 5083, 5203, 5249, 5628, 5455, 5575, 5621
3195, 5378, 5036, 5246, 5250, 5750, 5408, 5618, 5622
3196, 5306, 5265, 5314, 5307, 5678, 5637, 5686, 5679
3197, 5258, 5253, 5072, 5389, 5630, 5625, 5444, 5761
3198, 5260, 5254, 5259, 5277, 5632, 5626, 5631, 5649
3199, 5225, 5281, 5057, 5267, 5597, 5653, 5429, 5639
3200, 5296, 5303, 5312, 5383, 5668, 5675, 5684, 5755
3201, 5321, 5276, 5257, 5293, 5693, 5648, 5629, 5665
3202, 5276, 5031, 5168, 5257, 5648, 5403, 5540, 5629
3203, 5071, 5287, 5258, 5280, 5443, 5659, 5630, 5652
3204, 5267, 5277, 5058, 5225, 5639, 5649, 5430, 5597
3205, 5226, 5261, 5036, 5378, 5598, 5633, 5408, 5750
3206, 5213, 5033, 5262, 5395, 5585, 5405, 5634, 5767
3207, 5263, 5237, 5385, 5285, 5635, 5609, 5757, 5657
3208, 5283, 5074, 5302, 5264, 5655, 5446, 5674, 5636
3209, 5397, 5314, 5265, 5066, 5769, 5686, 5637, 5438
3210, 5071, 5280, 5065, 5306, 5443, 5652, 5437, 5678
3211, 5248, 5069, 5324, 5266, 5620, 5441, 5696, 5638
3212, 5032, 5384, 5271, 5298, 5404, 5756, 5643, 5670
3213, 5348, 5037, 5261, 5275, 5720, 5409, 5633, 5647
3214, 5386, 5064, 5279, 5278, 5758, 5436, 5651, 5650
3215, 5170, 5064, 5380, 5379, 5542, 5436, 5752, 5751
3216, 5236, 5386, 5258, 5389, 5608, 5758, 5630, 5761
3217, 5390, 5217, 5291, 5058, 5762, 5589, 5663, 5430
3218, 5074, 5283, 5120, 5288, 5446, 5655, 5492, 5660
3219, 5305, 5292, 5286, 5075, 5677, 5664, 5658, 5447
3220, 5306, 5307, 5315, 5071, 5678, 5679, 5687, 5443
3221, 5080, 5308, 5299, 5295, 5452, 5680, 5671, 5667
3222, 5295, 5302, 5074, 5273, 5667, 5674, 5446, 5645
3223, 5264, 5302, 5075, 5286, 5636, 5674, 5447, 5658
3224, 5300, 5069, 5286, 5292, 5672, 5441, 5658, 5664
3225, 5381, 5377, 5040, 5247, 5753, 5749, 5412, 5619
3226, 5205, 5387, 5377, 5381, 5577, 5759, 5749, 5753
3227, 5309, 5310, 5315, 5399, 5681, 5682, 5687, 5771
3228, 5315, 5310, 5301, 5294, 5687, 5682, 5673, 5666
3229, 5080, 5303, 5296, 5308, 5452, 5675, 5668, 5680
3230, 5069, 5300, 5398, 5324, 5441, 5672, 5770, 5696
3231, 5032, 5298, 5321, 5284, 5404, 5670, 5693, 5656
3232, 5324, 5398, 5314, 5317, 5696, 5770, 5686, 5689
3233, 5370, 5301, 5316, 5311, 5742, 5673, 5688, 5683
3234, 5077, 5294, 5301, 5370, 5449, 5666, 5673, 5742
3235, 5334,  236, 5304, 5061, 5706,  237, 5676, 5433
3236, 5400, 5076, 5310, 5309, 5772, 5448, 5682, 5681
3237, 5307, 5070, 5399, 5315, 5679, 5442, 5771, 5687
3238, 5300, 5292, 5309, 5399, 5672, 5664, 5681, 5771
3239, 5316, 5301, 5310, 5076, 5688, 5673, 5682, 5448
3240, 5319, 5082, 5322, 5311, 5691, 5454, 5694, 5683
3241, 5083, 5256, 5383, 5312, 5455, 5628, 5755, 5684
3242, 5313, 5299, 5308, 5318, 5685, 5671, 5680, 5690
3243, 5066, 5396, 5282, 5397, 5438, 5768, 5654, 5769
3244, 5398, 5070, 5307, 5314, 5770, 5442, 5679, 5686
3245, 5266, 5324, 5317, 5297, 5638, 5696, 5689, 5669
3246, 5393, 5318, 5081, 5391, 5765, 5690, 5453, 5763
3247, 5081, 5371, 5319, 5391, 5453, 5743, 5691, 5763
3248, 5387, 5394, 5293, 5377, 5759, 5766, 5665, 5749
3249, 5388, 5321, 5293, 5394, 5760, 5693, 5665, 5766
3250, 5328, 1502, 1503, 5327, 5700, 1449, 1450, 5699
3251, 1502, 5328, 5331, 1501, 1449, 5700, 5703, 1448
3252, 3686, 5329, 5330, 3685, 3724, 5701, 5702, 3723
3253, 5331, 5049, 5107, 5180, 5703, 5421, 5479, 5552
3254, 5333, 5035, 5240, 5332, 5705, 5407, 5612, 5704
3255, 5334, 5097, 5376, 5086, 5706, 5469, 5748, 5458
3256, 5338, 5337, 3831, 3832, 5710, 5709, 3859, 3860
3257, 5338, 3832, 3833, 5343, 5710, 3860, 3861, 5715
3258, 1524, 1525, 5344, 5343, 1471, 1472, 5716, 5715
3259, 3833, 3834, 5339, 1523, 3861, 3862, 5711, 1470
3260, 5339, 3834, 3835, 5340, 5711, 3862, 3863, 5712
3261, 3837, 5342, 5341, 3836, 3865, 5714, 5713, 3864
3262, 1525, 1526, 5345, 5344, 1472, 1473, 5717, 5716
3263, 5346, 5345, 1526, 1527, 5718, 5717, 1473, 1474
3264, 1528, 1529, 5146, 5347, 1475, 1476, 5518, 5719
3265, 5330, 5349, 3684, 3685, 5702, 5721, 3722, 3723
3266, 1511, 1512, 5351, 5350, 1458, 1459, 5723, 5722
3267, 5350, 5351, 3682, 3683, 5722, 5723, 3720, 3721
3268, 5351, 5352, 3681, 3682, 5723, 5724, 3719, 3720
3269, 5354, 3842, 1223, 5353, 5726, 3870, 1222, 5725
3270, 5356, 3840, 3841, 5355, 5728, 3868, 3869, 5727
3271, 3839, 3840, 5356, 5357, 3867, 3868, 5728, 5729
3272, 5358, 5357, 1518, 1519, 5730, 5729, 1465, 1466
3273, 5342, 3837, 3838, 5358, 5714, 3865, 3866, 5730
3274, 5118, 5359, 5085, 5109, 5490, 5731, 5457, 5481
3275, 5374, 5192, 5364, 5059, 5746, 5564, 5736, 5431
3276, 5103, 5048, 5346, 5347, 5475, 5420, 5718, 5719
3277, 5366, 5365, 5154, 5163, 5738, 5737, 5526, 5535
3278, 5369, 5134, 5135, 5368, 5741, 5506, 5507, 5740
3279, 5250, 5372, 5382, 5378, 5622, 5744, 5754, 5750
3280, 5243, 5373, 5217, 5390, 5615, 5745, 5589, 5762
3281, 5166, 5376, 5062, 5182, 5538, 5748, 5434, 5554
3282, 5378, 5382, 5176, 5226, 5750, 5754, 5548, 5598
3283, 5172, 5242, 5363, 5053, 5544, 5614, 5735, 5425
3284, 5256, 5289, 5296, 5383, 5628, 5661, 5668, 5755
3285, 5285, 5385, 5384, 5032, 5657, 5757, 5756, 5404
3286, 5385, 5210, 5369, 5384, 5757, 5582, 5741, 5756
3287, 5076, 5393, 5391, 5316, 5448, 5765, 5763, 5688
3288, 5388, 5394, 5387, 5041, 5760, 5766, 5759, 5413
3289, 5070, 5398, 5300, 5399, 5442, 5770, 5672, 5771
3290, 5076, 5400, 5305, 5393, 5448, 5772, 5677, 5765
3291, 1487,  179, 5581, 5571,  125,    3, 3355, 3345
3292, 1486, 5507, 5506, 1485,  126, 3281, 3280,  127
3293, 5582, 5757, 5609, 5409, 3356, 3531, 3383, 3183
3294, 5622, 5618, 5592, 5612, 3396, 3392, 3366, 3386
3295, 5704, 5612, 5592, 5644, 3478, 3386, 3366, 3418
3296, 3849, 3850, 5704, 5644, 1309, 1308, 3478, 3418
3297, 5705, 3851, 3852, 5502, 3479, 1307, 1306, 3276
3298, 3853, 5501, 5502, 3852, 1305, 3275, 3276, 1306
3299, 5417, 5501, 5499, 5566, 3191, 3275, 3273, 3340
3300, 5509, 5419, 1477, 1478, 3283, 3193,  135,  134
3301, 1478, 1479, 5510, 5509,  134,  133, 3284, 3283
3302, 1479, 1480, 5418, 5510,  133,  132, 3192, 3284
3303, 1480, 1481, 5511, 5418,  132,  131, 3285, 3192
3304, 5744, 5622, 5612, 5407, 3518, 3396, 3386, 3181
3305, 5407, 5580, 5754, 5744, 3181, 3354, 3528, 3518
3306, 3564, 5460,  349,  523, 1330, 3234,   10,   22
3307,  179,  349, 5460, 5459,    3,   10, 3234, 3233
3308, 5623, 5545, 5537, 5578, 3397, 3319, 3311, 3352
3309, 3778, 5519, 5536, 3777, 1324, 3293, 3310, 1325
3310, 5519, 3778, 3779, 5521, 3293, 1324, 1323, 3295
3311, 3781, 5522, 5520, 3780, 1321, 3296, 3294, 1322
3312, 5520, 5522, 5557, 5602, 3294, 3296, 3331, 3376
3313, 5571, 5583, 5593, 5402, 3345, 3357, 3367, 3176
3314, 5605, 5411, 5607, 5593, 3379, 3185, 3381, 3367
3315, 5583, 5571, 5581, 5734, 3357, 3345, 3355, 3508
3316, 5578, 5537, 3574, 3575, 3352, 3311, 1328, 1327
3317, 5462, 3782, 3783, 5415, 3236, 1320, 1319, 3189
3318, 5522, 5462, 5619, 5557, 3296, 3236, 3393, 3331
3319, 5403, 5648, 5643, 5740, 3177, 3422, 3417, 3514
3320, 5540, 5607, 5665, 5629, 3314, 3381, 3439, 3403
3321, 3784, 3785, 5523, 5524, 1318, 1317, 3297, 3298
3322, 1227, 3843, 5496, 3786,   64, 1315, 3270, 1316
3323, 3844, 3845, 5498, 5503, 1314, 1313, 3272, 3277
3324, 5498, 5497, 5414, 5567, 3272, 3271, 3188, 3341
3325, 5565, 5497, 3846, 3847, 3339, 3271, 1312, 1311
3326, 3845, 3846, 5497, 5498, 1313, 1312, 3271, 3272
3327, 5635, 5657, 5634, 5405, 3409, 3431, 3408, 3179
3328, 5656, 5611, 5767, 5634, 3430, 3385, 3541, 3408
3329, 5416, 5567, 5588, 5692, 3190, 3341, 3362, 3466
3330, 3847, 3848, 5406, 5565, 1311, 1310, 3180, 3339
3331, 5499, 3854, 3855, 5500, 3273, 1304, 1303, 3274
3332, 3858, 5708, 5420, 3857, 1300, 3482, 3194, 1301
3333, 5713, 1468, 1469, 5712, 3487,  144,  143, 3486
3334, 1470, 5711, 5712, 1469,  142, 3485, 3486,  143
3335, 3867, 5729, 5730, 3866, 1291, 3503, 3504, 1292
3336, 3870, 5726, 5727, 3869, 1288, 3500, 3501, 1289
3337, 1462, 1463, 5727, 5726,  150,  149, 3501, 3500
3338, 1222, 3719, 5724, 5725,   63, 1287, 3498, 3499
3339, 1460, 1461, 5725, 5724,  152,  151, 3499, 3498
3340, 5724, 5723, 1459, 1460, 3498, 3497,  153,  152
3341, 3721, 3722, 5721, 5722, 1285, 1284, 3495, 3496
3342, 5701, 3724, 3725, 1455, 3475, 1282, 1281,  157
3343, 1455, 3725, 3726, 1454,  157, 1281, 1280,  158
3344, 1454, 3726, 3727, 1453,  158, 1280, 1279,  159
3345, 1452, 3728, 3729, 1451,  160, 1278, 1277,  161
3346, 3730, 5695, 1451, 3729, 1276, 3469,  161, 1277
3347, 5515, 5422, 1445, 1446, 3289, 3196,  167,  166
3348, 1443, 1444, 5513, 5572,  169,  168, 3287, 3346
3349, 5596, 5426, 5642, 5616, 3370, 3200, 3416, 3390
3350, 5426, 5627, 5546, 5642, 3200, 3401, 3320, 3416
3351, 5439, 5590, 5638, 5626, 3213, 3364, 3412, 3400
3352, 5655, 5636, 5620, 5440, 3429, 3410, 3394, 3214
3353, 5452, 5667, 5645, 5662, 3226, 3441, 3419, 3436
3354, 5480, 5493, 5561, 5550, 3254, 3267, 3335, 3324
3355, 5481, 3753, 3754, 5490, 3255, 1253, 1252, 3264
3356, 5493, 5489, 5562, 5561, 3267, 3263, 3336, 3335
3357, 5490, 3754, 3755, 5484, 3264, 1252, 1251, 3258
3358, 1216, 3601, 5486, 3756,   62, 1249, 3260, 1250
3359, 3601, 3602, 5529, 5486, 1249, 1248, 3303, 3260
3360, 5518, 5419, 5499, 5500, 3292, 3193, 3273, 3274
3361, 5419, 5518, 1476, 1477, 3193, 3292,  136,  135
3362, 3857, 5420, 5475, 3856, 1301, 3194, 3249, 1302
3363, 5709, 5708, 3858, 3859, 3483, 3482, 1300, 1299
3364, 5700, 5485, 5421, 5703, 3474, 3259, 3195, 3477
3365, 3736, 5476, 5491, 3735, 1270, 3250, 3265, 1271
3366, 3735, 5491, 5478, 3734, 1271, 3265, 3252, 1272
3367, 5572, 5513, 5555, 5599, 3346, 3287, 3329, 3373
3368, 5476, 3736, 3737, 5487, 3250, 1270, 1269, 3261
3369, 5487, 3737, 3738, 5482, 3261, 1269, 1268, 3256
3370, 5596, 5614, 5613, 5426, 3370, 3388, 3387, 3200
3371, 5596, 5616, 5599, 5549, 3370, 3390, 3373, 3323
3372, 5482, 3738, 3739, 5543, 3256, 1268, 1267, 3317
3373, 5543, 3739, 3740, 5494, 3317, 1267, 1266, 3268
3374, 5429, 5595, 5428, 5697, 3203, 3369, 3202, 3471
3375, 5614, 5544, 5595, 5613, 3388, 3318, 3369, 3387
3376, 5494, 3740, 3741, 5428, 3268, 1266, 1265, 3202
3377, 3743, 5495, 5559, 3742, 1263, 3269, 3333, 1264
3378, 5559, 5495, 5563, 5584, 3333, 3269, 3337, 3358
3379, 3746, 5492, 5483, 3745, 1260, 3266, 3257, 1261
3380, 5488, 5483, 5440, 5558, 3262, 3257, 3214, 3332
3381, 5440, 5483, 5492, 5655, 3214, 3257, 3266, 3429
3382, 5660, 3747, 3748, 5477, 3434, 1259, 1258, 3251
3383, 5662, 5645, 5477, 5451, 3436, 3419, 3251, 3225
3384, 5486, 5529, 5560, 5484, 3260, 3303, 3334, 3258
3385, 5527, 5535, 3604, 3605, 3301, 3309, 1246, 1245
3386, 5527, 5575, 5738, 5535, 3301, 3349, 3512, 3309
3387, 5743, 5453, 5668, 5661, 3517, 3227, 3442, 3435
3388, 5671, 5685, 5677, 5447, 3445, 3459, 3451, 3221
3389, 5681, 5664, 5677, 5772, 3455, 3438, 3451, 3546
3390, 5669, 5689, 5686, 5769, 3443, 3463, 3460, 3543
3391, 5654, 5768, 5764, 5615, 3428, 3542, 3538, 3389
3392, 1438, 5512, 5505, 1437,  174, 3286, 3279,  175
3393, 5736, 5505, 5512, 5579, 3510, 3279, 3286, 3353
3394, 5504, 5508, 1440, 1441, 3278, 3282,  172,  171
3395, 5424, 5504, 1441, 1442, 3198, 3278,  171,  170
3396, 5575, 5527, 5531, 5621, 3349, 3301, 3305, 3395
3397, 3605, 3606, 5531, 5527, 1245, 1244, 3305, 3301
3398, 5698, 5576, 5456, 5534, 3472, 3350, 3230, 3308
3399, 5621, 5531, 5534, 5456, 3395, 3305, 3308, 3230
3400, 5677, 5685, 5690, 5765, 3451, 3459, 3464, 3539
3401, 5687, 5666, 5659, 5443, 3461, 3440, 3433, 3217
3402, 5437, 5624, 5637, 5678, 3211, 3398, 3411, 3452
3403, 5604, 5746, 5431, 5764, 3378, 3520, 3205, 3538
3404, 5516, 5573, 1435, 1436, 3290, 3347,  177,  176
3405, 5505, 5736, 5564, 5516, 3279, 3510, 3338, 3290
3406, 5514, 5512, 1438, 1439, 3288, 3286,  174,  173
3407, 3610, 5532, 5528, 3609, 1240, 3306, 3302, 1241
3408, 5733, 5694, 5532, 5533, 3507, 3468, 3306, 3307
3409, 5463, 5547, 5569, 5445, 3237, 3321, 3343, 3219
3410, 5594, 5606, 5640, 5547, 3368, 3380, 3414, 3321
3411, 5470, 3638, 3639, 5473, 3244, 1232, 1231, 3247
3412, 3561,  463,  405, 5468, 1331,   19,   15, 3242
3413, 5466, 5464, 3557, 3558, 3240, 3238, 1335, 1334
3414, 5461, 5553, 5551, 5435, 3235, 3327, 3325, 3209
3415, 5573, 5676,  237, 1435, 3347, 3450,    4,  177
3416, 5650, 5651, 5586, 5646, 3424, 3425, 3360, 3420
3417, 5650, 5652, 5630, 5758, 3424, 3426, 3404, 3532
3418, 5641, 5625, 5630, 5659, 3415, 3399, 3404, 3433
3419, 3612, 5530, 5533, 3611, 1238, 3304, 3307, 1239
3420, 5435, 3640, 3641, 5461, 3209, 1230, 1229, 3235
3421, 5553, 5461, 5464, 5466, 3327, 3235, 3238, 3240
3422, 5552, 5479, 5478, 5515, 3326, 3253, 3252, 3289
3423, 1465, 5729, 5728, 1464,  147, 3503, 3502,  148
3424, 5420, 5708, 5717, 5718, 3194, 3482, 3491, 3492
3425, 5582, 5570, 5506, 5741, 3356, 3344, 3280, 3515
3426, 5740, 5507, 5517, 5403, 3514, 3281, 3291, 3177
3427, 5633, 5409, 5609, 5408, 3407, 3183, 3383, 3182
3428, 1482, 1483, 5720, 5647,  130,  129, 3494, 3421
3429, 5740, 5643, 5756, 5741, 3514, 3417, 3530, 3515
3430, 5611, 5588, 5567, 5414, 3385, 3362, 3341, 3188
3431, 3781, 3782, 5462, 5522, 1321, 1320, 3236, 3296
3432, 5427, 5663, 5589, 5539, 3201, 3437, 3363, 3313
3433, 5508, 5546, 5597, 5427, 3282, 3320, 3371, 3201
3434, 5762, 5631, 5654, 5615, 3536, 3405, 3428, 3389
3435, 5649, 5639, 5610, 5632, 3423, 3413, 3384, 3406
3436, 5471, 3637, 3638, 5470, 3245, 1233, 1232, 3244
3437, 5433, 5651, 5436, 5542, 3207, 3425, 3210, 3316
3438, 5641, 5450, 5732, 5625, 3415, 3224, 3506, 3399
3439, 5445, 5569, 5568, 5472, 3219, 3343, 3342, 3246
3440, 3634, 5472, 5474, 3633, 1236, 3246, 3248, 1237
3441, 5554, 5553, 5466, 5465, 3328, 3327, 3240, 3239
3442, 5467, 5465, 3559, 3560, 3241, 3239, 1333, 1332
3443, 5445, 3635, 3636, 5463, 3219, 1235, 1234, 3237
3444, 5547, 5463, 5471, 5594, 3321, 3237, 3245, 3368
3445, 5746, 5604, 5624, 5600, 3520, 3378, 3398, 3374
3446, 5769, 5654, 5631, 5669, 3543, 3428, 3405, 3443
3447, 5747, 5620, 5638, 5590, 3521, 3394, 3412, 3364
3448, 5441, 5620, 5636, 5658, 3215, 3394, 3410, 3432
3449, 5438, 5637, 5624, 5604, 3212, 3411, 3398, 3378
3450, 5668, 5453, 5690, 5680, 3442, 3227, 3464, 3454
3451, 5671, 5447, 5674, 5667, 3445, 3221, 3448, 3441
3452, 5641, 5659, 5666, 5449, 3415, 3433, 3440, 3223
3453, 1221, 5525, 5530, 3612,   61, 3299, 3304, 1238
3454, 5683, 5694, 5733, 5742, 3457, 3468, 3507, 3516
3455, 5621, 5456, 5661, 5628, 3395, 3230, 3435, 3402
3456, 5480, 5550, 5662, 5451, 3254, 3324, 3436, 3225
3457, 5763, 5691, 5683, 5688, 3537, 3465, 3457, 3462
3458, 5528, 5698, 3608, 3609, 3302, 3472, 1242, 1241
3459, 3752, 5489, 5493, 3751, 1254, 3263, 3267, 1255
3460, 5676, 5586, 5651, 5433, 3450, 3360, 3425, 3207
3461, 5460, 3564, 1212, 3573, 3234, 1330,   66, 1329
3462, 5537, 5460, 3573, 3574, 3311, 3234, 1329, 1328
3463, 3575, 3576, 5536, 5578, 1327, 1326, 3310, 3352
3464, 3576, 1215, 3777, 5536, 1326,   65, 1325, 3310
3465, 3780, 5520, 5521, 3779, 1322, 3294, 3295, 1323
3466, 5524, 5415, 3783, 3784, 3298, 3189, 1319, 1318
3467, 5496, 5523, 3785, 3786, 3270, 3297, 1317, 1316
3468, 5503, 5496, 3843, 3844, 3277, 3270, 1315, 1314
3469, 5406, 3848, 3849, 5644, 3180, 1310, 1309, 3418
3470, 5704, 3850, 3851, 5705, 3478, 1308, 1307, 3479
3471, 5716, 5717, 5708, 5709, 3490, 3491, 3482, 3483
3472, 5709, 5710, 5715, 5716, 3483, 3484, 3489, 3490
3473, 3863, 3864, 5713, 5712, 1295, 1294, 3487, 3486
3474, 5725, 1461, 1462, 5726, 3499,  151,  150, 3500
3475, 5722, 5721, 1457, 1458, 3496, 3495,  155,  154
3476, 1453, 3727, 3728, 1452,  159, 1279, 1278,  160
3477, 5700, 5699, 3731, 5485, 3474, 3473, 1275, 3259
3478, 5485, 3731, 3732, 5421, 3259, 1275, 1274, 3195
3479, 3732, 3733, 5479, 5421, 1274, 1273, 3253, 3195
3480, 3744, 5488, 5495, 3743, 1262, 3262, 3269, 1263
3481, 3745, 5483, 5488, 3744, 1261, 3257, 3262, 1262
3482, 5492, 3746, 3747, 5660, 3266, 1260, 1259, 3434
3483, 5477, 3748, 3749, 5451, 3251, 1258, 1257, 3225
3484, 5451, 3749, 3750, 5480, 3225, 1257, 1256, 3254
3485, 3753, 5481, 5489, 3752, 1253, 3255, 3263, 1254
3486, 3756, 5486, 5484, 3755, 1250, 3260, 3258, 1251
3487, 5534, 5531, 3606, 3607, 3308, 3305, 1244, 1243
3488, 3633, 5474, 5525, 1221, 1237, 3248, 3299,   61
3489, 3635, 5445, 5472, 3634, 1235, 3219, 3246, 1236
3490, 5463, 3636, 3637, 5471, 3237, 1234, 1233, 3245
3491, 3640, 5435, 5473, 3639, 1230, 3209, 3247, 1231
3492, 5464, 3642, 1207, 3557, 3238, 1228,   60, 1335
3493, 5707, 5468,  405, 5458, 3481, 3242,   15, 3232
3494, 5571, 5402, 5517, 1487, 3345, 3176, 3291,  125
3495, 5720, 1483, 1484, 5570, 3494,  129,  128, 3344
3496, 5647, 5511, 1481, 1482, 3421, 3285,  131,  130
3497, 1474, 1475, 5719, 5718,  138,  137, 3493, 3492
3498, 1471, 5715, 3861, 1470,  141, 3489, 1297,  142
3499, 1468, 5713, 5714, 1467,  144, 3487, 3488,  145
3500, 1467, 5714, 5730, 1466,  145, 3488, 3504,  146
3501, 5728, 5727, 1463, 1464, 3502, 3501,  149,  148
3502, 1456, 1457, 5721, 5702,  156,  155, 3495, 3476
3503, 5702, 5701, 1455, 1456, 3476, 3475,  157,  156
3504, 1450, 1451, 5695, 5699,  162,  161, 3469, 3473
3505, 1448, 5703, 5552, 1447,  164, 3477, 3326,  165
3506, 5515, 5478, 5601, 5422, 3289, 3252, 3375, 3196
3507, 1444, 1445, 5422, 5513,  168,  167, 3196, 3287
3508, 5572, 5424, 1442, 1443, 3346, 3198,  170,  169
3509, 1439, 1440, 5508, 5514,  173,  172, 3282, 3288
3510, 5505, 5516, 1436, 1437, 3279, 3290,  176,  175
3511, 5706, 5458,  405,  237, 3480, 3232,   15,    4
3512, 5545, 5459, 5460, 5537, 3319, 3233, 3234, 3311
3513, 3642, 5464, 5461, 3641, 1228, 3238, 3235, 1229
3514, 5603, 5577, 5462, 5415, 3377, 3351, 3236, 3189
3515, 5753, 5619, 5462, 5577, 3527, 3393, 3236, 3351
3516, 5468, 5467, 3560, 3561, 3242, 3241, 1332, 1331
3517, 5538, 5554, 5465, 5467, 3312, 3328, 3239, 3241
3518, 5465, 5466, 3558, 3559, 3239, 3240, 1334, 1333
3519, 5434, 5551, 5553, 5554, 3208, 3325, 3327, 3328
3520, 5538, 5467, 5468, 5707, 3312, 3241, 3242, 3481
3521, 5433, 5542, 5469, 5706, 3207, 3316, 3243, 3480
3522, 5751, 5606, 5739, 5587, 3525, 3380, 3513, 3361
3523, 5473, 5556, 5401, 5470, 3247, 3330, 3175, 3244
3524, 5594, 5471, 5470, 5401, 3368, 3245, 3244, 3175
3525, 5732, 5474, 5472, 5568, 3506, 3248, 3246, 3342
3526, 5556, 5473, 5435, 5551, 3330, 3247, 3209, 3325
3527, 5450, 5525, 5474, 5732, 3224, 3299, 3248, 3506
3528, 3856, 5475, 5500, 3855, 1302, 3249, 3274, 1303
3529, 5491, 5476, 5423, 5555, 3265, 3250, 3197, 3329
3530, 5446, 5660, 5477, 5645, 3220, 3434, 3251, 3419
3531, 5479, 3733, 3734, 5478, 3253, 1273, 1272, 3252
3532, 5480, 3750, 3751, 5493, 3254, 1256, 1255, 3267
3533, 5489, 5481, 5457, 5562, 3263, 3255, 3231, 3336
3534, 5482, 5735, 5549, 5487, 3256, 3509, 3323, 3261
3535, 5526, 5529, 3602, 3603, 3300, 3303, 1248, 1247
3536, 5529, 5526, 5737, 5560, 3303, 3300, 3511, 3334
3537, 3731, 5699, 5695, 3730, 1275, 3473, 3469, 1276
3538, 5423, 5476, 5487, 5549, 3197, 3250, 3261, 3323
3539, 5495, 5488, 5558, 5563, 3269, 3262, 3332, 3337
3540, 5484, 5560, 5731, 5490, 3258, 3334, 3505, 3264
3541, 5513, 5422, 5601, 5555, 3287, 3196, 3375, 3329
3542, 5684, 5675, 5550, 5561, 3458, 3449, 3324, 3335
3543, 5544, 5494, 5428, 5595, 3318, 3268, 3202, 3369
3544, 5544, 5425, 5543, 5494, 3318, 3199, 3317, 3268
3545, 5503, 5416, 5523, 5496, 3277, 3190, 3297, 3270
3546, 5414, 5497, 5565, 5585, 3188, 3271, 3339, 3359
3547, 5416, 5503, 5498, 5567, 3190, 3277, 3272, 3341
3548, 5419, 5509, 5566, 5499, 3193, 3283, 3340, 3273
3549, 5501, 3853, 3854, 5499, 3275, 1305, 1304, 3273
3550, 5719, 5518, 5500, 5475, 3493, 3292, 3274, 3249
3551, 5580, 5502, 5501, 5417, 3354, 3276, 3275, 3191
3552, 5754, 5580, 5417, 5548, 3528, 3354, 3191, 3322
3553, 5580, 5407, 5705, 5502, 3354, 3181, 3479, 3276
3554, 5504, 5424, 5616, 5642, 3278, 3198, 3390, 3416
3555, 5642, 5546, 5508, 5504, 3416, 3320, 3282, 3278
3556, 5570, 1484, 1485, 5506, 3344,  128,  127, 3280
3557, 1487, 5517, 5507, 1486,  125, 3291, 3281,  126
3558, 5539, 5514, 5508, 5427, 3313, 3288, 3282, 3201
3559, 5566, 5509, 5510, 5417, 3340, 3283, 3284, 3191
3560, 5417, 5510, 5418, 5548, 3191, 3284, 3192, 3322
3561, 5647, 5633, 5598, 5511, 3421, 3407, 3372, 3285
3562, 5579, 5512, 5514, 5539, 3353, 3286, 3288, 3313
3563, 5478, 5491, 5555, 5601, 3252, 3265, 3329, 3375
3564, 5552, 5515, 1446, 1447, 3326, 3289,  166,  165
3565, 5564, 5432, 5573, 5516, 3338, 3206, 3347, 3290
3566, 5403, 5517, 5402, 5540, 3177, 3291, 3176, 3314
3567, 5410, 5519, 5521, 5541, 3184, 3293, 3295, 3315
3568, 5578, 5536, 5519, 5410, 3352, 3310, 3293, 3184
3569, 5521, 5520, 5602, 5411, 3295, 3294, 3376, 3185
3570, 5605, 5541, 5521, 5411, 3379, 3315, 3295, 3185
3571, 5692, 5524, 5523, 5416, 3466, 3298, 3297, 3190
3572, 5415, 5524, 5692, 5603, 3189, 3298, 3466, 3377
3573, 5574, 5530, 5525, 5450, 3348, 3304, 3299, 3224
3574, 5535, 5526, 3603, 3604, 3309, 3300, 1247, 1246
3575, 5576, 5454, 5691, 5743, 3350, 3228, 3465, 3517
3576, 5449, 5574, 5450, 5641, 3223, 3348, 3224, 3415
3577, 3611, 5533, 5532, 3610, 1239, 3307, 3306, 1240
3578, 5694, 5454, 5528, 5532, 3468, 3228, 3302, 3306
3579, 5733, 5533, 5530, 5574, 3507, 3307, 3304, 3348
3580, 5698, 5534, 3607, 3608, 3472, 3308, 1243, 1242
3581, 5748, 5538, 5707, 5458, 3522, 3312, 3481, 3232
3582, 5430, 5663, 5427, 5597, 3204, 3437, 3201, 3371
3583, 5579, 5539, 5589, 5745, 3353, 3313, 3363, 3519
3584, 5541, 5605, 5734, 5623, 3315, 3379, 3508, 3397
3585, 5606, 5594, 5401, 5739, 3380, 3368, 3175, 3513
3586, 5482, 5543, 5425, 5735, 3256, 3317, 3199, 3509
3587, 5653, 5627, 5426, 5613, 3427, 3401, 3200, 3387
3588, 5640, 5591, 5569, 5547, 3414, 3365, 3343, 3321
3589, 5548, 5418, 5511, 5598, 3322, 3192, 3285, 3372
3590, 5555, 5423, 5549, 5599, 3329, 3197, 3323, 3373
3591, 5614, 5596, 5549, 5735, 3388, 3370, 3323, 3509
3592, 5452, 5662, 5550, 5675, 3226, 3436, 3324, 3449
3593, 5617, 5556, 5551, 5434, 3391, 3330, 3325, 3208
3594, 5748, 5469, 5587, 5739, 3522, 3243, 3361, 3513
3595, 5619, 5412, 5602, 5557, 3393, 3186, 3376, 3331
3596, 5620, 5747, 5558, 5440, 3394, 3521, 3332, 3214
3597, 5590, 5563, 5558, 5747, 3364, 3337, 3332, 3521
3598, 3742, 5559, 5428, 3741, 1264, 3333, 3202, 1265
3599, 5738, 5731, 5560, 5737, 3512, 3505, 3334, 3511
3600, 5562, 5455, 5684, 5561, 3336, 3229, 3458, 3335
3601, 5455, 5562, 5457, 5575, 3229, 3336, 3231, 3349
3602, 5590, 5439, 5584, 5563, 3364, 3213, 3358, 3337
3603, 5644, 5592, 5565, 5406, 3418, 3366, 3339, 3180
3604, 5405, 5585, 5565, 5592, 3179, 3359, 3339, 3366
3605, 5568, 5444, 5625, 5732, 3342, 3218, 3399, 3506
3606, 5444, 5568, 5569, 5591, 3218, 3342, 3343, 3365
3607, 5582, 5409, 5720, 5570, 3356, 3183, 3494, 3344
3608, 5545, 5581,  179, 5459, 3319, 3355,    3, 3233
3609, 5676, 5573, 5432, 5586, 3450, 3347, 3206, 3360
3610, 5449, 5742, 5733, 5574, 3223, 3516, 3507, 3348
3611, 5731, 5738, 5575, 5457, 3505, 3512, 3349, 3231
3612, 5528, 5454, 5576, 5698, 3302, 3228, 3350, 3472
3613, 5576, 5743, 5661, 5456, 3350, 3517, 3435, 3230
3614, 5692, 5588, 5413, 5603, 3466, 3362, 3187, 3377
3615, 5541, 5623, 5578, 5410, 3315, 3397, 3352, 3184
3616, 5745, 5431, 5736, 5579, 3519, 3205, 3510, 3353
3617, 5623, 5734, 5581, 5545, 3397, 3508, 3355, 3319
3618, 5404, 5656, 5634, 5657, 3178, 3430, 3408, 3431
3619, 5734, 5605, 5593, 5583, 3508, 3379, 3367, 3357
3620, 5697, 5584, 5439, 5610, 3471, 3358, 3213, 3384
3621, 5639, 5429, 5697, 5610, 3413, 3203, 3471, 3384
3622, 5585, 5767, 5611, 5414, 3359, 3541, 3385, 3188
3623, 5646, 5586, 5432, 5600, 3420, 3360, 3206, 3374
3624, 5739, 5401, 5556, 5617, 3513, 3175, 3330, 3391
3625, 5751, 5587, 5469, 5542, 3525, 3361, 3243, 3316
3626, 5577, 5603, 5413, 5759, 3351, 3377, 3187, 3533
3627, 5608, 5591, 5640, 5752, 3382, 3365, 3414, 3526
3628, 5412, 5607, 5411, 5602, 3186, 3381, 3185, 3376
3629, 5607, 5540, 5402, 5593, 3381, 3314, 3176, 3367
3630, 5434, 5748, 5739, 5617, 3208, 3522, 3513, 3391
3631, 5653, 5613, 5595, 5429, 3427, 3387, 3369, 3203
3632, 5584, 5697, 5428, 5559, 3358, 3471, 3202, 3333
3633, 5546, 5627, 5653, 5597, 3320, 3401, 3427, 3371
3634, 5616, 5424, 5572, 5599, 3390, 3198, 3346, 3373
3635, 5437, 5646, 5600, 5624, 3211, 3420, 3374, 3398
3636, 5600, 5432, 5564, 5746, 3374, 3206, 3338, 3520
3637, 5764, 5431, 5745, 5615, 3538, 3205, 3519, 3389
3638, 5752, 5640, 5606, 5751, 3526, 3414, 3380, 3525
3639, 5758, 5608, 5752, 5436, 3532, 3382, 3526, 3210
3640, 5749, 5665, 5607, 5412, 3523, 3439, 3381, 3186
3641, 5646, 5437, 5652, 5650, 3420, 3211, 3426, 3424
3642, 5761, 5444, 5591, 5608, 3535, 3218, 3365, 3382
3643, 5609, 5635, 5618, 5408, 3383, 3409, 3392, 3182
3644, 5610, 5439, 5626, 5632, 3384, 3213, 3400, 3406
3645, 5693, 5760, 5611, 5656, 3467, 3534, 3385, 3430
3646, 5413, 5588, 5611, 5760, 3187, 3362, 3385, 3534
3647, 5649, 5631, 5762, 5430, 3423, 3405, 3536, 3204
3648, 5438, 5604, 5764, 5768, 3212, 3378, 3538, 3542
3649, 5635, 5405, 5592, 5618, 3409, 3179, 3366, 3392
3650, 5643, 5648, 5693, 5670, 3417, 3422, 3467, 3444
3651, 5631, 5626, 5638, 5669, 3405, 3400, 3412, 3443
3652, 5628, 5455, 5575, 5621, 3402, 3229, 3349, 3395
3653, 5750, 5408, 5618, 5622, 3524, 3182, 3392, 3396
3654, 5678, 5637, 5686, 5679, 3452, 3411, 3460, 3453
3655, 5630, 5625, 5444, 5761, 3404, 3399, 3218, 3535
3656, 5632, 5626, 5631, 5649, 3406, 3400, 3405, 3423
3657, 5597, 5653, 5429, 5639, 3371, 3427, 3203, 3413
3658, 5668, 5675, 5684, 5755, 3442, 3449, 3458, 3529
3659, 5693, 5648, 5629, 5665, 3467, 3422, 3403, 3439
3660, 5648, 5403, 5540, 5629, 3422, 3177, 3314, 3403
3661, 5443, 5659, 5630, 5652, 3217, 3433, 3404, 3426
3662, 5639, 5649, 5430, 5597, 3413, 3423, 3204, 3371
3663, 5598, 5633, 5408, 5750, 3372, 3407, 3182, 3524
3664, 5585, 5405, 5634, 5767, 3359, 3179, 3408, 3541
3665, 5635, 5609, 5757, 5657, 3409, 3383, 3531, 3431
3666, 5655, 5446, 5674, 5636, 3429, 3220, 3448, 3410
3667, 5769, 5686, 5637, 5438, 3543, 3460, 3411, 3212
3668, 5443, 5652, 5437, 5678, 3217, 3426, 3211, 3452
3669, 5620, 5441, 5696, 5638, 3394, 3215, 3470, 3412
3670, 5404, 5756, 5643, 5670, 3178, 3530, 3417, 3444
3671, 5720, 5409, 5633, 5647, 3494, 3183, 3407, 3421
3672, 5758, 5436, 5651, 5650, 3532, 3210, 3425, 3424
3673, 5542, 5436, 5752, 5751, 3316, 3210, 3526, 3525
3674, 5608, 5758, 5630, 5761, 3382, 3532, 3404, 3535
3675, 5762, 5589, 5663, 5430, 3536, 3363, 3437, 3204
3676, 5446, 5655, 5492, 5660, 3220, 3429, 3266, 3434
3677, 5677, 5664, 5658, 5447, 3451, 3438, 3432, 3221
3678, 5678, 5679, 5687, 5443, 3452, 3453, 3461, 3217
3679, 5452, 5680, 5671, 5667, 3226, 3454, 3445, 3441
3680, 5667, 5674, 5446, 5645, 3441, 3448, 3220, 3419
3681, 5636, 5674, 5447, 5658, 3410, 3448, 3221, 3432
3682, 5672, 5441, 5658, 5664, 3446, 3215, 3432, 3438
3683, 5753, 5749, 5412, 5619, 3527, 3523, 3186, 3393
3684, 5577, 5759, 5749, 5753, 3351, 3533, 3523, 3527
3685, 5681, 5682, 5687, 5771, 3455, 3456, 3461, 3545
3686, 5687, 5682, 5673, 5666, 3461, 3456, 3447, 3440
3687, 5452, 5675, 5668, 5680, 3226, 3449, 3442, 3454
3688, 5441, 5672, 5770, 5696, 3215, 3446, 3544, 3470
3689, 5404, 5670, 5693, 5656, 3178, 3444, 3467, 3430
3690, 5696, 5770, 5686, 5689, 3470, 3544, 3460, 3463
3691, 5742, 5673, 5688, 5683, 3516, 3447, 3462, 3457
3692, 5449, 5666, 5673, 5742, 3223, 3440, 3447, 3516
3693, 5706,  237, 5676, 5433, 3480,    4, 3450, 3207
3694, 5772, 5448, 5682, 5681, 3546, 3222, 3456, 3455
3695, 5679, 5442, 5771, 5687, 3453, 3216, 3545, 3461
3696, 5672, 5664, 5681, 5771, 3446, 3438, 3455, 3545
3697, 5688, 5673, 5682, 5448, 3462, 3447, 3456, 3222
3698, 5691, 5454, 5694, 5683, 3465, 3228, 3468, 3457
3699, 5455, 5628, 5755, 5684, 3229, 3402, 3529, 3458
3700, 5685, 5671, 5680, 5690, 3459, 3445, 3454, 3464
3701, 5438, 5768, 5654, 5769, 3212, 3542, 3428, 3543
3702, 5770, 5442, 5679, 5686, 3544, 3216, 3453, 3460
3703, 5638, 5696, 5689, 5669, 3412, 3470, 3463, 3443
3704, 5765, 5690, 5453, 5763, 3539, 3464, 3227, 3537
3705, 5453, 5743, 5691, 5763, 3227, 3517, 3465, 3537
3706, 5759, 5766, 5665, 5749, 3533, 3540, 3439, 3523
3707, 5760, 5693, 5665, 5766, 3534, 3467, 3439, 3540
3708, 5700, 1449, 1450, 5699, 3474,  163,  162, 3473
3709, 1449, 5700, 5703, 1448,  163, 3474, 3477,  164
3710, 3724, 5701, 5702, 3723, 1282, 3475, 3476, 1283
3711, 5703, 5421, 5479, 5552, 3477, 3195, 3253, 3326
3712, 5705, 5407, 5612, 5704, 3479, 3181, 3386, 3478
3713, 5706, 5469, 5748, 5458, 3480, 3243, 3522, 3232
3714, 5710, 5709, 3859, 3860, 3484, 3483, 1299, 1298
3715, 5710, 3860, 3861, 5715, 3484, 1298, 1297, 3489
3716, 1471, 1472, 5716, 5715,  141,  140, 3490, 3489
3717, 3861, 3862, 5711, 1470, 1297, 1296, 3485,  142
3718, 5711, 3862, 3863, 5712, 3485, 1296, 1295, 3486
3719, 3865, 5714, 5713, 3864, 1293, 3488, 3487, 1294
3720, 1472, 1473, 5717, 5716,  140,  139, 3491, 3490
3721, 5718, 5717, 1473, 1474, 3492, 3491,  139,  138
3722, 1475, 1476, 5518, 5719,  137,  136, 3292, 3493
3723, 5702, 5721, 3722, 3723, 3476, 3495, 1284, 1283
3724, 1458, 1459, 5723, 5722,  154,  153, 3497, 3496
3725, 5722, 5723, 3720, 3721, 3496, 3497, 1286, 1285
3726, 5723, 5724, 3719, 3720, 3497, 3498, 1287, 1286
3727, 5726, 3870, 1222, 5725, 3500, 1288,   63, 3499
3728, 5728, 3868, 3869, 5727, 3502, 1290, 1289, 3501
3729, 3867, 3868, 5728, 5729, 1291, 1290, 3502, 3503
3730, 5730, 5729, 1465, 1466, 3504, 3503,  147,  146
3731, 5714, 3865, 3866, 5730, 3488, 1293, 1292, 3504
3732, 5490, 5731, 5457, 5481, 3264, 3505, 3231, 3255
3733, 5746, 5564, 5736, 5431, 3520, 3338, 3510, 3205
3734, 5475, 5420, 5718, 5719, 3249, 3194, 3492, 3493
3735, 5738, 5737, 5526, 5535, 3512, 3511, 3300, 3309
3736, 5741, 5506, 5507, 5740, 3515, 3280, 3281, 3514
3737, 5622, 5744, 5754, 5750, 3396, 3518, 3528, 3524
3738, 5615, 5745, 5589, 5762, 3389, 3519, 3363, 3536
3739, 5538, 5748, 5434, 5554, 3312, 3522, 3208, 3328
3740, 5750, 5754, 5548, 5598, 3524, 3528, 3322, 3372
3741, 5544, 5614, 5735, 5425, 3318, 3388, 3509, 3199
3742, 5628, 5661, 5668, 5755, 3402, 3435, 3442, 3529
3743, 5657, 5757, 5756, 5404, 3431, 3531, 3530, 3178
3744, 5757, 5582, 5741, 5756, 3531, 3356, 3515, 3530
3745, 5448, 5765, 5763, 5688, 3222, 3539, 3537, 3462
3746, 5760, 5766, 5759, 5413, 3534, 3540, 3533, 3187
3747, 5442, 5770, 5672, 5771, 3216, 3544, 3446, 3545
3748, 5448, 5772, 5677, 5765, 3222, 3546, 3451, 3539
3749,  125,    3, 3355, 3345, 1434,  124, 5953, 5943
3750,  126, 3281, 3280,  127, 1433, 5879, 5878, 1432
3751, 3356, 3531, 3383, 3183, 5954, 6129, 5981, 5781
3752, 3396, 3392, 3366, 3386, 5994, 5990, 5964, 5984
3753, 3478, 3386, 3366, 3418, 6076, 5984, 5964, 6016
3754, 1309, 1308, 3478, 3418,  531,  532, 6076, 6016
3755, 3479, 1307, 1306, 3276, 6077,  533,  534, 5874
3756, 1305, 3275, 3276, 1306,  535, 5873, 5874,  534
3757, 3191, 3275, 3273, 3340, 5789, 5873, 5871, 5938
3758, 3283, 3193,  135,  134, 5881, 5791, 1424, 1425
3759,  134,  133, 3284, 3283, 1425, 1426, 5882, 5881
3760,  133,  132, 3192, 3284, 1426, 1427, 5790, 5882
3761,  132,  131, 3285, 3192, 1427, 1428, 5883, 5790
3762, 3518, 3396, 3386, 3181, 6116, 5994, 5984, 5779
3763, 3181, 3354, 3528, 3518, 5779, 5952, 6126, 6116
3764, 1330, 3234,   10,   22, 3912, 5832,  346,  520
3765,    3,   10, 3234, 3233,  124,  346, 5832, 5831
3766, 3397, 3319, 3311, 3352, 5995, 5917, 5909, 5950
3767, 1324, 3293, 3310, 1325, 3902, 5891, 5908, 3901
3768, 3293, 1324, 1323, 3295, 5891, 3902, 3898, 5893
3769, 1321, 3296, 3294, 1322, 3904, 5894, 5892, 3903
3770, 3294, 3296, 3331, 3376, 5892, 5894, 5929, 5974
3771, 3345, 3357, 3367, 3176, 5943, 5955, 5965, 5774
3772, 3379, 3185, 3381, 3367, 5977, 5783, 5979, 5965
3773, 3357, 3345, 3355, 3508, 5955, 5943, 5953, 6106
3774, 3352, 3311, 1328, 1327, 5950, 5909, 3908, 3910
3775, 3236, 1320, 1319, 3189, 5834, 3899, 3905, 5787
3776, 3296, 3236, 3393, 3331, 5894, 5834, 5991, 5929
3777, 3177, 3422, 3417, 3514, 5775, 6020, 6015, 6112
3778, 3314, 3381, 3439, 3403, 5912, 5979, 6037, 6001
3779, 1318, 1317, 3297, 3298, 3900, 3906, 5895, 5896
3780,   64, 1315, 3270, 1316,   25,  525, 5868, 3907
3781, 1314, 1313, 3272, 3277,  526,  527, 5870, 5875
3782, 3272, 3271, 3188, 3341, 5870, 5869, 5786, 5939
3783, 3339, 3271, 1312, 1311, 5937, 5869,  528,  529
3784, 1313, 1312, 3271, 3272,  527,  528, 5869, 5870
3785, 3409, 3431, 3408, 3179, 6007, 6029, 6006, 5777
3786, 3430, 3385, 3541, 3408, 6028, 5983, 6139, 6006
3787, 3190, 3341, 3362, 3466, 5788, 5939, 5960, 6064
3788, 1311, 1310, 3180, 3339,  529,  530, 5778, 5937
3789, 3273, 1304, 1303, 3274, 5871,  536,  537, 5872
3790, 1300, 3482, 3194, 1301,  540, 6080, 5792,  539
3791, 3487,  144,  143, 3486, 6085, 1415, 1416, 6084
3792,  142, 3485, 3486,  143, 1417, 6083, 6084, 1416
3793, 1291, 3503, 3504, 1292,  549, 6101, 6102,  548
3794, 1288, 3500, 3501, 1289,  552, 6098, 6099,  551
3795,  150,  149, 3501, 3500, 1409, 1410, 6099, 6098
3796,   63, 1287, 3498, 3499,   26,  553, 6096, 6097
3797,  152,  151, 3499, 3498, 1407, 1408, 6097, 6096
3798, 3498, 3497,  153,  152, 6096, 6095, 1406, 1407
3799, 1285, 1284, 3495, 3496,  555,  556, 6093, 6094
3800, 3475, 1282, 1281,  157, 6073,  558,  559, 1402
3801,  157, 1281, 1280,  158, 1402,  559,  560, 1401
3802,  158, 1280, 1279,  159, 1401,  560,  561, 1400
3803,  160, 1278, 1277,  161, 1399,  562,  563, 1398
3804, 1276, 3469,  161, 1277,  564, 6067, 1398,  563
3805, 3289, 3196,  167,  166, 5887, 5794, 1392, 1393
3806,  169,  168, 3287, 3346, 1390, 1391, 5885, 5944
3807, 3370, 3200, 3416, 3390, 5968, 5798, 6014, 5988
3808, 3200, 3401, 3320, 3416, 5798, 5999, 5918, 6014
3809, 3213, 3364, 3412, 3400, 5811, 5962, 6010, 5998
3810, 3429, 3410, 3394, 3214, 6027, 6008, 5992, 5812
3811, 3226, 3441, 3419, 3436, 5824, 6039, 6017, 6034
3812, 3254, 3267, 3335, 3324, 5852, 5865, 5933, 5922
3813, 3255, 1253, 1252, 3264, 5853,  587,  588, 5862
3814, 3267, 3263, 3336, 3335, 5865, 5861, 5934, 5933
3815, 3264, 1252, 1251, 3258, 5862,  588,  589, 5856
3816,   62, 1249, 3260, 1250,   27, 3893, 5858,  590
3817, 1249, 1248, 3303, 3260, 3893, 3886, 5901, 5858
3818, 3292, 3193, 3273, 3274, 5890, 5791, 5871, 5872
3819, 3193, 3292,  136,  135, 5791, 5890, 1423, 1424
3820, 1301, 3194, 3249, 1302,  539, 5792, 5847,  538
3821, 3483, 3482, 1300, 1299, 6081, 6080,  540,  541
3822, 3474, 3259, 3195, 3477, 6072, 5857, 5793, 6075
3823, 1270, 3250, 3265, 1271,  570, 5848, 5863,  569
3824, 1271, 3265, 3252, 1272,  569, 5863, 5850,  568
3825, 3346, 3287, 3329, 3373, 5944, 5885, 5927, 5971
3826, 3250, 1270, 1269, 3261, 5848,  570,  571, 5859
3827, 3261, 1269, 1268, 3256, 5859,  571,  572, 5854
3828, 3370, 3388, 3387, 3200, 5968, 5986, 5985, 5798
3829, 3370, 3390, 3373, 3323, 5968, 5988, 5971, 5921
3830, 3256, 1268, 1267, 3317, 5854,  572,  573, 5915
3831, 3317, 1267, 1266, 3268, 5915,  573,  574, 5866
3832, 3203, 3369, 3202, 3471, 5801, 5967, 5800, 6069
3833, 3388, 3318, 3369, 3387, 5986, 5916, 5967, 5985
3834, 3268, 1266, 1265, 3202, 5866,  574,  575, 5800
3835, 1263, 3269, 3333, 1264,  577, 5867, 5931,  576
3836, 3333, 3269, 3337, 3358, 5931, 5867, 5935, 5956
3837, 1260, 3266, 3257, 1261,  580, 5864, 5855,  579
3838, 3262, 3257, 3214, 3332, 5860, 5855, 5812, 5930
3839, 3214, 3257, 3266, 3429, 5812, 5855, 5864, 6027
3840, 3434, 1259, 1258, 3251, 6032,  581,  582, 5849
3841, 3436, 3419, 3251, 3225, 6034, 6017, 5849, 5823
3842, 3260, 3303, 3334, 3258, 5858, 5901, 5932, 5856
3843, 3301, 3309, 1246, 1245, 5899, 5907, 3894, 3888
3844, 3301, 3349, 3512, 3309, 5899, 5947, 6110, 5907
3845, 3517, 3227, 3442, 3435, 6115, 5825, 6040, 6033
3846, 3445, 3459, 3451, 3221, 6043, 6057, 6049, 5819
3847, 3455, 3438, 3451, 3546, 6053, 6036, 6049, 6144
3848, 3443, 3463, 3460, 3543, 6041, 6061, 6058, 6141
3849, 3428, 3542, 3538, 3389, 6026, 6140, 6136, 5987
3850,  174, 3286, 3279,  175, 1385, 5884, 5877, 1384
3851, 3510, 3279, 3286, 3353, 6108, 5877, 5884, 5951
3852, 3278, 3282,  172,  171, 5876, 5880, 1387, 1388
3853, 3198, 3278,  171,  170, 5796, 5876, 1388, 1389
3854, 3349, 3301, 3305, 3395, 5947, 5899, 5903, 5993
3855, 1245, 1244, 3305, 3301, 3888, 3895, 5903, 5899
3856, 3472, 3350, 3230, 3308, 6070, 5948, 5828, 5906
3857, 3395, 3305, 3308, 3230, 5993, 5903, 5906, 5828
3858, 3451, 3459, 3464, 3539, 6049, 6057, 6062, 6137
3859, 3461, 3440, 3433, 3217, 6059, 6038, 6031, 5815
3860, 3211, 3398, 3411, 3452, 5809, 5996, 6009, 6050
3861, 3378, 3520, 3205, 3538, 5976, 6118, 5803, 6136
3862, 3290, 3347,  177,  176, 5888, 5945, 1382, 1383
3863, 3279, 3510, 3338, 3290, 5877, 6108, 5936, 5888
3864, 3288, 3286,  174,  173, 5886, 5884, 1385, 1386
3865, 1240, 3306, 3302, 1241, 3891, 5904, 5900, 3896
3866, 3507, 3468, 3306, 3307, 6105, 6066, 5904, 5905
3867, 3237, 3321, 3343, 3219, 5835, 5919, 5941, 5817
3868, 3368, 3380, 3414, 3321, 5966, 5978, 6012, 5919
3869, 3244, 1232, 1231, 3247, 5842, 3882, 3883, 5845
3870, 1331,   19,   15, 3242, 3875,  462,  404, 5840
3871, 3240, 3238, 1335, 1334, 5838, 5836, 3872, 3873
3872, 3235, 3327, 3325, 3209, 5833, 5925, 5923, 5807
3873, 3347, 3450,    4,  177, 5945, 6048,  178, 1382
3874, 3424, 3425, 3360, 3420, 6022, 6023, 5958, 6018
3875, 3424, 3426, 3404, 3532, 6022, 6024, 6002, 6130
3876, 3415, 3399, 3404, 3433, 6013, 5997, 6002, 6031
3877, 1238, 3304, 3307, 1239, 3897, 5902, 5905, 3892
3878, 3209, 1230, 1229, 3235, 5807, 3878, 3884, 5833
3879, 3327, 3235, 3238, 3240, 5925, 5833, 5836, 5838
3880, 3326, 3253, 3252, 3289, 5924, 5851, 5850, 5887
3881,  147, 3503, 3502,  148, 1412, 6101, 6100, 1411
3882, 3194, 3482, 3491, 3492, 5792, 6080, 6089, 6090
3883, 3356, 3344, 3280, 3515, 5954, 5942, 5878, 6113
3884, 3514, 3281, 3291, 3177, 6112, 5879, 5889, 5775
3885, 3407, 3183, 3383, 3182, 6005, 5781, 5981, 5780
3886,  130,  129, 3494, 3421, 1429, 1430, 6092, 6019
3887, 3514, 3417, 3530, 3515, 6112, 6015, 6128, 6113
3888, 3385, 3362, 3341, 3188, 5983, 5960, 5939, 5786
3889, 1321, 1320, 3236, 3296, 3904, 3899, 5834, 5894
3890, 3201, 3437, 3363, 3313, 5799, 6035, 5961, 5911
3891, 3282, 3320, 3371, 3201, 5880, 5918, 5969, 5799
3892, 3536, 3405, 3428, 3389, 6134, 6003, 6026, 5987
3893, 3423, 3413, 3384, 3406, 6021, 6011, 5982, 6004
3894, 3245, 1233, 1232, 3244, 5843, 3877, 3882, 5842
3895, 3207, 3425, 3210, 3316, 5805, 6023, 5808, 5914
3896, 3415, 3224, 3506, 3399, 6013, 5822, 6104, 5997
3897, 3219, 3343, 3342, 3246, 5817, 5941, 5940, 5844
3898, 1236, 3246, 3248, 1237, 3880, 5844, 5846, 3879
3899, 3328, 3327, 3240, 3239, 5926, 5925, 5838, 5837
3900, 3241, 3239, 1333, 1332, 5839, 5837, 3871, 3874
3901, 3219, 1235, 1234, 3237, 5817, 3876, 3881, 5835
3902, 3321, 3237, 3245, 3368, 5919, 5835, 5843, 5966
3903, 3520, 3378, 3398, 3374, 6118, 5976, 5996, 5972
3904, 3543, 3428, 3405, 3443, 6141, 6026, 6003, 6041
3905, 3521, 3394, 3412, 3364, 6119, 5992, 6010, 5962
3906, 3215, 3394, 3410, 3432, 5813, 5992, 6008, 6030
3907, 3212, 3411, 3398, 3378, 5810, 6009, 5996, 5976
3908, 3442, 3227, 3464, 3454, 6040, 5825, 6062, 6052
3909, 3445, 3221, 3448, 3441, 6043, 5819, 6046, 6039
3910, 3415, 3433, 3440, 3223, 6013, 6031, 6038, 5821
3911,   61, 3299, 3304, 1238, 1352, 5897, 5902, 3897
3912, 3457, 3468, 3507, 3516, 6055, 6066, 6105, 6114
3913, 3395, 3230, 3435, 3402, 5993, 5828, 6033, 6000
3914, 3254, 3324, 3436, 3225, 5852, 5922, 6034, 5823
3915, 3537, 3465, 3457, 3462, 6135, 6063, 6055, 6060
3916, 3302, 3472, 1242, 1241, 5900, 6070, 3890, 3896
3917, 1254, 3263, 3267, 1255,  586, 5861, 5865,  585
3918, 3450, 3360, 3425, 3207, 6048, 5958, 6023, 5805
3919, 3234, 1330,   66, 1329, 5832, 3912, 1380, 3909
3920, 3311, 3234, 1329, 1328, 5909, 5832, 3909, 3908
3921, 1327, 1326, 3310, 3352, 3910, 3911, 5908, 5950
3922, 1326,   65, 1325, 3310, 3911, 1375, 3901, 5908
3923, 1322, 3294, 3295, 1323, 3903, 5892, 5893, 3898
3924, 3298, 3189, 1319, 1318, 5896, 5787, 3905, 3900
3925, 3270, 3297, 1317, 1316, 5868, 5895, 3906, 3907
3926, 3277, 3270, 1315, 1314, 5875, 5868,  525,  526
3927, 3180, 1310, 1309, 3418, 5778,  530,  531, 6016
3928, 3478, 1308, 1307, 3479, 6076,  532,  533, 6077
3929, 3490, 3491, 3482, 3483, 6088, 6089, 6080, 6081
3930, 3483, 3484, 3489, 3490, 6081, 6082, 6087, 6088
3931, 1295, 1294, 3487, 3486,  545,  546, 6085, 6084
3932, 3499,  151,  150, 3500, 6097, 1408, 1409, 6098
3933, 3496, 3495,  155,  154, 6094, 6093, 1404, 1405
3934,  159, 1279, 1278,  160, 1400,  561,  562, 1399
3935, 3474, 3473, 1275, 3259, 6072, 6071,  565, 5857
3936, 3259, 1275, 1274, 3195, 5857,  565,  566, 5793
3937, 1274, 1273, 3253, 3195,  566,  567, 5851, 5793
3938, 1262, 3262, 3269, 1263,  578, 5860, 5867,  577
3939, 1261, 3257, 3262, 1262,  579, 5855, 5860,  578
3940, 3266, 1260, 1259, 3434, 5864,  580,  581, 6032
3941, 3251, 1258, 1257, 3225, 5849,  582,  583, 5823
3942, 3225, 1257, 1256, 3254, 5823,  583,  584, 5852
3943, 1253, 3255, 3263, 1254,  587, 5853, 5861,  586
3944, 1250, 3260, 3258, 1251,  590, 5858, 5856,  589
3945, 3308, 3305, 1244, 1243, 5906, 5903, 3895, 3889
3946, 1237, 3248, 3299,   61, 3879, 5846, 5897, 1352
3947, 1235, 3219, 3246, 1236, 3876, 5817, 5844, 3880
3948, 3237, 1234, 1233, 3245, 5835, 3881, 3877, 5843
3949, 1230, 3209, 3247, 1231, 3878, 5807, 5845, 3883
3950, 3238, 1228,   60, 1335, 5836, 3885, 1341, 3872
3951, 3481, 3242,   15, 3232, 6079, 5840,  404, 5830
3952, 3345, 3176, 3291,  125, 5943, 5774, 5889, 1434
3953, 3494,  129,  128, 3344, 6092, 1430, 1431, 5942
3954, 3421, 3285,  131,  130, 6019, 5883, 1428, 1429
3955,  138,  137, 3493, 3492, 1421, 1422, 6091, 6090
3956,  141, 3489, 1297,  142, 1418, 6087,  543, 1417
3957,  144, 3487, 3488,  145, 1415, 6085, 6086, 1414
3958,  145, 3488, 3504,  146, 1414, 6086, 6102, 1413
3959, 3502, 3501,  149,  148, 6100, 6099, 1410, 1411
3960,  156,  155, 3495, 3476, 1403, 1404, 6093, 6074
3961, 3476, 3475,  157,  156, 6074, 6073, 1402, 1403
3962,  162,  161, 3469, 3473, 1397, 1398, 6067, 6071
3963,  164, 3477, 3326,  165, 1395, 6075, 5924, 1394
3964, 3289, 3252, 3375, 3196, 5887, 5850, 5973, 5794
3965,  168,  167, 3196, 3287, 1391, 1392, 5794, 5885
3966, 3346, 3198,  170,  169, 5944, 5796, 1389, 1390
3967,  173,  172, 3282, 3288, 1386, 1387, 5880, 5886
3968, 3279, 3290,  176,  175, 5877, 5888, 1383, 1384
3969, 3480, 3232,   15,    4, 6078, 5830,  404,  178
3970, 3319, 3233, 3234, 3311, 5917, 5831, 5832, 5909
3971, 1228, 3238, 3235, 1229, 3885, 5836, 5833, 3884
3972, 3377, 3351, 3236, 3189, 5975, 5949, 5834, 5787
3973, 3527, 3393, 3236, 3351, 6125, 5991, 5834, 5949
3974, 3242, 3241, 1332, 1331, 5840, 5839, 3874, 3875
3975, 3312, 3328, 3239, 3241, 5910, 5926, 5837, 5839
3976, 3239, 3240, 1334, 1333, 5837, 5838, 3873, 3871
3977, 3208, 3325, 3327, 3328, 5806, 5923, 5925, 5926
3978, 3312, 3241, 3242, 3481, 5910, 5839, 5840, 6079
3979, 3207, 3316, 3243, 3480, 5805, 5914, 5841, 6078
3980, 3525, 3380, 3513, 3361, 6123, 5978, 6111, 5959
3981, 3247, 3330, 3175, 3244, 5845, 5928, 5773, 5842
3982, 3368, 3245, 3244, 3175, 5966, 5843, 5842, 5773
3983, 3506, 3248, 3246, 3342, 6104, 5846, 5844, 5940
3984, 3330, 3247, 3209, 3325, 5928, 5845, 5807, 5923
3985, 3224, 3299, 3248, 3506, 5822, 5897, 5846, 6104
3986, 1302, 3249, 3274, 1303,  538, 5847, 5872,  537
3987, 3265, 3250, 3197, 3329, 5863, 5848, 5795, 5927
3988, 3220, 3434, 3251, 3419, 5818, 6032, 5849, 6017
3989, 3253, 1273, 1272, 3252, 5851,  567,  568, 5850
3990, 3254, 1256, 1255, 3267, 5852,  584,  585, 5865
3991, 3263, 3255, 3231, 3336, 5861, 5853, 5829, 5934
3992, 3256, 3509, 3323, 3261, 5854, 6107, 5921, 5859
3993, 3300, 3303, 1248, 1247, 5898, 5901, 3886, 3887
3994, 3303, 3300, 3511, 3334, 5901, 5898, 6109, 5932
3995, 1275, 3473, 3469, 1276,  565, 6071, 6067,  564
3996, 3197, 3250, 3261, 3323, 5795, 5848, 5859, 5921
3997, 3269, 3262, 3332, 3337, 5867, 5860, 5930, 5935
3998, 3258, 3334, 3505, 3264, 5856, 5932, 6103, 5862
3999, 3287, 3196, 3375, 3329, 5885, 5794, 5973, 5927
4000, 3458, 3449, 3324, 3335, 6056, 6047, 5922, 5933
4001, 3318, 3268, 3202, 3369, 5916, 5866, 5800, 5967
4002, 3318, 3199, 3317, 3268, 5916, 5797, 5915, 5866
4003, 3277, 3190, 3297, 3270, 5875, 5788, 5895, 5868
4004, 3188, 3271, 3339, 3359, 5786, 5869, 5937, 5957
4005, 3190, 3277, 3272, 3341, 5788, 5875, 5870, 5939
4006, 3193, 3283, 3340, 3273, 5791, 5881, 5938, 5871
4007, 3275, 1305, 1304, 3273, 5873,  535,  536, 5871
4008, 3493, 3292, 3274, 3249, 6091, 5890, 5872, 5847
4009, 3354, 3276, 3275, 3191, 5952, 5874, 5873, 5789
4010, 3528, 3354, 3191, 3322, 6126, 5952, 5789, 5920
4011, 3354, 3181, 3479, 3276, 5952, 5779, 6077, 5874
4012, 3278, 3198, 3390, 3416, 5876, 5796, 5988, 6014
4013, 3416, 3320, 3282, 3278, 6014, 5918, 5880, 5876
4014, 3344,  128,  127, 3280, 5942, 1431, 1432, 5878
4015,  125, 3291, 3281,  126, 1434, 5889, 5879, 1433
4016, 3313, 3288, 3282, 3201, 5911, 5886, 5880, 5799
4017, 3340, 3283, 3284, 3191, 5938, 5881, 5882, 5789
4018, 3191, 3284, 3192, 3322, 5789, 5882, 5790, 5920
4019, 3421, 3407, 3372, 3285, 6019, 6005, 5970, 5883
4020, 3353, 3286, 3288, 3313, 5951, 5884, 5886, 5911
4021, 3252, 3265, 3329, 3375, 5850, 5863, 5927, 5973
4022, 3326, 3289,  166,  165, 5924, 5887, 1393, 1394
4023, 3338, 3206, 3347, 3290, 5936, 5804, 5945, 5888
4024, 3177, 3291, 3176, 3314, 5775, 5889, 5774, 5912
4025, 3184, 3293, 3295, 3315, 5782, 5891, 5893, 5913
4026, 3352, 3310, 3293, 3184, 5950, 5908, 5891, 5782
4027, 3295, 3294, 3376, 3185, 5893, 5892, 5974, 5783
4028, 3379, 3315, 3295, 3185, 5977, 5913, 5893, 5783
4029, 3466, 3298, 3297, 3190, 6064, 5896, 5895, 5788
4030, 3189, 3298, 3466, 3377, 5787, 5896, 6064, 5975
4031, 3348, 3304, 3299, 3224, 5946, 5902, 5897, 5822
4032, 3309, 3300, 1247, 1246, 5907, 5898, 3887, 3894
4033, 3350, 3228, 3465, 3517, 5948, 5826, 6063, 6115
4034, 3223, 3348, 3224, 3415, 5821, 5946, 5822, 6013
4035, 1239, 3307, 3306, 1240, 3892, 5905, 5904, 3891
4036, 3468, 3228, 3302, 3306, 6066, 5826, 5900, 5904
4037, 3507, 3307, 3304, 3348, 6105, 5905, 5902, 5946
4038, 3472, 3308, 1243, 1242, 6070, 5906, 3889, 3890
4039, 3522, 3312, 3481, 3232, 6120, 5910, 6079, 5830
4040, 3204, 3437, 3201, 3371, 5802, 6035, 5799, 5969
4041, 3353, 3313, 3363, 3519, 5951, 5911, 5961, 6117
4042, 3315, 3379, 3508, 3397, 5913, 5977, 6106, 5995
4043, 3380, 3368, 3175, 3513, 5978, 5966, 5773, 6111
4044, 3256, 3317, 3199, 3509, 5854, 5915, 5797, 6107
4045, 3427, 3401, 3200, 3387, 6025, 5999, 5798, 5985
4046, 3414, 3365, 3343, 3321, 6012, 5963, 5941, 5919
4047, 3322, 3192, 3285, 3372, 5920, 5790, 5883, 5970
4048, 3329, 3197, 3323, 3373, 5927, 5795, 5921, 5971
4049, 3388, 3370, 3323, 3509, 5986, 5968, 5921, 6107
4050, 3226, 3436, 3324, 3449, 5824, 6034, 5922, 6047
4051, 3391, 3330, 3325, 3208, 5989, 5928, 5923, 5806
4052, 3522, 3243, 3361, 3513, 6120, 5841, 5959, 6111
4053, 3393, 3186, 3376, 3331, 5991, 5784, 5974, 5929
4054, 3394, 3521, 3332, 3214, 5992, 6119, 5930, 5812
4055, 3364, 3337, 3332, 3521, 5962, 5935, 5930, 6119
4056, 1264, 3333, 3202, 1265,  576, 5931, 5800,  575
4057, 3512, 3505, 3334, 3511, 6110, 6103, 5932, 6109
4058, 3336, 3229, 3458, 3335, 5934, 5827, 6056, 5933
4059, 3229, 3336, 3231, 3349, 5827, 5934, 5829, 5947
4060, 3364, 3213, 3358, 3337, 5962, 5811, 5956, 5935
4061, 3418, 3366, 3339, 3180, 6016, 5964, 5937, 5778
4062, 3179, 3359, 3339, 3366, 5777, 5957, 5937, 5964
4063, 3342, 3218, 3399, 3506, 5940, 5816, 5997, 6104
4064, 3218, 3342, 3343, 3365, 5816, 5940, 5941, 5963
4065, 3356, 3183, 3494, 3344, 5954, 5781, 6092, 5942
4066, 3319, 3355,    3, 3233, 5917, 5953,  124, 5831
4067, 3450, 3347, 3206, 3360, 6048, 5945, 5804, 5958
4068, 3223, 3516, 3507, 3348, 5821, 6114, 6105, 5946
4069, 3505, 3512, 3349, 3231, 6103, 6110, 5947, 5829
4070, 3302, 3228, 3350, 3472, 5900, 5826, 5948, 6070
4071, 3350, 3517, 3435, 3230, 5948, 6115, 6033, 5828
4072, 3466, 3362, 3187, 3377, 6064, 5960, 5785, 5975
4073, 3315, 3397, 3352, 3184, 5913, 5995, 5950, 5782
4074, 3519, 3205, 3510, 3353, 6117, 5803, 6108, 5951
4075, 3397, 3508, 3355, 3319, 5995, 6106, 5953, 5917
4076, 3178, 3430, 3408, 3431, 5776, 6028, 6006, 6029
4077, 3508, 3379, 3367, 3357, 6106, 5977, 5965, 5955
4078, 3471, 3358, 3213, 3384, 6069, 5956, 5811, 5982
4079, 3413, 3203, 3471, 3384, 6011, 5801, 6069, 5982
4080, 3359, 3541, 3385, 3188, 5957, 6139, 5983, 5786
4081, 3420, 3360, 3206, 3374, 6018, 5958, 5804, 5972
4082, 3513, 3175, 3330, 3391, 6111, 5773, 5928, 5989
4083, 3525, 3361, 3243, 3316, 6123, 5959, 5841, 5914
4084, 3351, 3377, 3187, 3533, 5949, 5975, 5785, 6131
4085, 3382, 3365, 3414, 3526, 5980, 5963, 6012, 6124
4086, 3186, 3381, 3185, 3376, 5784, 5979, 5783, 5974
4087, 3381, 3314, 3176, 3367, 5979, 5912, 5774, 5965
4088, 3208, 3522, 3513, 3391, 5806, 6120, 6111, 5989
4089, 3427, 3387, 3369, 3203, 6025, 5985, 5967, 5801
4090, 3358, 3471, 3202, 3333, 5956, 6069, 5800, 5931
4091, 3320, 3401, 3427, 3371, 5918, 5999, 6025, 5969
4092, 3390, 3198, 3346, 3373, 5988, 5796, 5944, 5971
4093, 3211, 3420, 3374, 3398, 5809, 6018, 5972, 5996
4094, 3374, 3206, 3338, 3520, 5972, 5804, 5936, 6118
4095, 3538, 3205, 3519, 3389, 6136, 5803, 6117, 5987
4096, 3526, 3414, 3380, 3525, 6124, 6012, 5978, 6123
4097, 3532, 3382, 3526, 3210, 6130, 5980, 6124, 5808
4098, 3523, 3439, 3381, 3186, 6121, 6037, 5979, 5784
4099, 3420, 3211, 3426, 3424, 6018, 5809, 6024, 6022
4100, 3535, 3218, 3365, 3382, 6133, 5816, 5963, 5980
4101, 3383, 3409, 3392, 3182, 5981, 6007, 5990, 5780
4102, 3384, 3213, 3400, 3406, 5982, 5811, 5998, 6004
4103, 3467, 3534, 3385, 3430, 6065, 6132, 5983, 6028
4104, 3187, 3362, 3385, 3534, 5785, 5960, 5983, 6132
4105, 3423, 3405, 3536, 3204, 6021, 6003, 6134, 5802
4106, 3212, 3378, 3538, 3542, 5810, 5976, 6136, 6140
4107, 3409, 3179, 3366, 3392, 6007, 5777, 5964, 5990
4108, 3417, 3422, 3467, 3444, 6015, 6020, 6065, 6042
4109, 3405, 3400, 3412, 3443, 6003, 5998, 6010, 6041
4110, 3402, 3229, 3349, 3395, 6000, 5827, 5947, 5993
4111, 3524, 3182, 3392, 3396, 6122, 5780, 5990, 5994
4112, 3452, 3411, 3460, 3453, 6050, 6009, 6058, 6051
4113, 3404, 3399, 3218, 3535, 6002, 5997, 5816, 6133
4114, 3406, 3400, 3405, 3423, 6004, 5998, 6003, 6021
4115, 3371, 3427, 3203, 3413, 5969, 6025, 5801, 6011
4116, 3442, 3449, 3458, 3529, 6040, 6047, 6056, 6127
4117, 3467, 3422, 3403, 3439, 6065, 6020, 6001, 6037
4118, 3422, 3177, 3314, 3403, 6020, 5775, 5912, 6001
4119, 3217, 3433, 3404, 3426, 5815, 6031, 6002, 6024
4120, 3413, 3423, 3204, 3371, 6011, 6021, 5802, 5969
4121, 3372, 3407, 3182, 3524, 5970, 6005, 5780, 6122
4122, 3359, 3179, 3408, 3541, 5957, 5777, 6006, 6139
4123, 3409, 3383, 3531, 3431, 6007, 5981, 6129, 6029
4124, 3429, 3220, 3448, 3410, 6027, 5818, 6046, 6008
4125, 3543, 3460, 3411, 3212, 6141, 6058, 6009, 5810
4126, 3217, 3426, 3211, 3452, 5815, 6024, 5809, 6050
4127, 3394, 3215, 3470, 3412, 5992, 5813, 6068, 6010
4128, 3178, 3530, 3417, 3444, 5776, 6128, 6015, 6042
4129, 3494, 3183, 3407, 3421, 6092, 5781, 6005, 6019
4130, 3532, 3210, 3425, 3424, 6130, 5808, 6023, 6022
4131, 3316, 3210, 3526, 3525, 5914, 5808, 6124, 6123
4132, 3382, 3532, 3404, 3535, 5980, 6130, 6002, 6133
4133, 3536, 3363, 3437, 3204, 6134, 5961, 6035, 5802
4134, 3220, 3429, 3266, 3434, 5818, 6027, 5864, 6032
4135, 3451, 3438, 3432, 3221, 6049, 6036, 6030, 5819
4136, 3452, 3453, 3461, 3217, 6050, 6051, 6059, 5815
4137, 3226, 3454, 3445, 3441, 5824, 6052, 6043, 6039
4138, 3441, 3448, 3220, 3419, 6039, 6046, 5818, 6017
4139, 3410, 3448, 3221, 3432, 6008, 6046, 5819, 6030
4140, 3446, 3215, 3432, 3438, 6044, 5813, 6030, 6036
4141, 3527, 3523, 3186, 3393, 6125, 6121, 5784, 5991
4142, 3351, 3533, 3523, 3527, 5949, 6131, 6121, 6125
4143, 3455, 3456, 3461, 3545, 6053, 6054, 6059, 6143
4144, 3461, 3456, 3447, 3440, 6059, 6054, 6045, 6038
4145, 3226, 3449, 3442, 3454, 5824, 6047, 6040, 6052
4146, 3215, 3446, 3544, 3470, 5813, 6044, 6142, 6068
4147, 3178, 3444, 3467, 3430, 5776, 6042, 6065, 6028
4148, 3470, 3544, 3460, 3463, 6068, 6142, 6058, 6061
4149, 3516, 3447, 3462, 3457, 6114, 6045, 6060, 6055
4150, 3223, 3440, 3447, 3516, 5821, 6038, 6045, 6114
4151, 3480,    4, 3450, 3207, 6078,  178, 6048, 5805
4152, 3546, 3222, 3456, 3455, 6144, 5820, 6054, 6053
4153, 3453, 3216, 3545, 3461, 6051, 5814, 6143, 6059
4154, 3446, 3438, 3455, 3545, 6044, 6036, 6053, 6143
4155, 3462, 3447, 3456, 3222, 6060, 6045, 6054, 5820
4156, 3465, 3228, 3468, 3457, 6063, 5826, 6066, 6055
4157, 3229, 3402, 3529, 3458, 5827, 6000, 6127, 6056
4158, 3459, 3445, 3454, 3464, 6057, 6043, 6052, 6062
4159, 3212, 3542, 3428, 3543, 5810, 6140, 6026, 6141
4160, 3544, 3216, 3453, 3460, 6142, 5814, 6051, 6058
4161, 3412, 3470, 3463, 3443, 6010, 6068, 6061, 6041
4162, 3539, 3464, 3227, 3537, 6137, 6062, 5825, 6135
4163, 3227, 3517, 3465, 3537, 5825, 6115, 6063, 6135
4164, 3533, 3540, 3439, 3523, 6131, 6138, 6037, 6121
4165, 3534, 3467, 3439, 3540, 6132, 6065, 6037, 6138
4166, 3474,  163,  162, 3473, 6072, 1396, 1397, 6071
4167,  163, 3474, 3477,  164, 1396, 6072, 6075, 1395
4168, 1282, 3475, 3476, 1283,  558, 6073, 6074,  557
4169, 3477, 3195, 3253, 3326, 6075, 5793, 5851, 5924
4170, 3479, 3181, 3386, 3478, 6077, 5779, 5984, 6076
4171, 3480, 3243, 3522, 3232, 6078, 5841, 6120, 5830
4172, 3484, 3483, 1299, 1298, 6082, 6081,  541,  542
4173, 3484, 1298, 1297, 3489, 6082,  542,  543, 6087
4174,  141,  140, 3490, 3489, 1418, 1419, 6088, 6087
4175, 1297, 1296, 3485,  142,  543,  544, 6083, 1417
4176, 3485, 1296, 1295, 3486, 6083,  544,  545, 6084
4177, 1293, 3488, 3487, 1294,  547, 6086, 6085,  546
4178,  140,  139, 3491, 3490, 1419, 1420, 6089, 6088
4179, 3492, 3491,  139,  138, 6090, 6089, 1420, 1421
4180,  137,  136, 3292, 3493, 1422, 1423, 5890, 6091
4181, 3476, 3495, 1284, 1283, 6074, 6093,  556,  557
4182,  154,  153, 3497, 3496, 1405, 1406, 6095, 6094
4183, 3496, 3497, 1286, 1285, 6094, 6095,  554,  555
4184, 3497, 3498, 1287, 1286, 6095, 6096,  553,  554
4185, 3500, 1288,   63, 3499, 6098,  552,   26, 6097
4186, 3502, 1290, 1289, 3501, 6100,  550,  551, 6099
4187, 1291, 1290, 3502, 3503,  549,  550, 6100, 6101
4188, 3504, 3503,  147,  146, 6102, 6101, 1412, 1413
4189, 3488, 1293, 1292, 3504, 6086,  547,  548, 6102
4190, 3264, 3505, 3231, 3255, 5862, 6103, 5829, 5853
4191, 3520, 3338, 3510, 3205, 6118, 5936, 6108, 5803
4192, 3249, 3194, 3492, 3493, 5847, 5792, 6090, 6091
4193, 3512, 3511, 3300, 3309, 6110, 6109, 5898, 5907
4194, 3515, 3280, 3281, 3514, 6113, 5878, 5879, 6112
4195, 3396, 3518, 3528, 3524, 5994, 6116, 6126, 6122
4196, 3389, 3519, 3363, 3536, 5987, 6117, 5961, 6134
4197, 3312, 3522, 3208, 3328, 5910, 6120, 5806, 5926
4198, 3524, 3528, 3322, 3372, 6122, 6126, 5920, 5970
4199, 3318, 3388, 3509, 3199, 5916, 5986, 6107, 5797
4200, 3402, 3435, 3442, 3529, 6000, 6033, 6040, 6127
4201, 3431, 3531, 3530, 3178, 6029, 6129, 6128, 5776
4202, 3531, 3356, 3515, 3530, 6129, 5954, 6113, 6128
4203, 3222, 3539, 3537, 3462, 5820, 6137, 6135, 6060
4204, 3534, 3540, 3533, 3187, 6132, 6138, 6131, 5785
4205, 3216, 3544, 3446, 3545, 5814, 6142, 6044, 6143
4206, 3222, 3546, 3451, 3539, 5820, 6144, 6049, 6137
4207, 1434,  124, 5953, 5943,  123,    2, 4093, 4083
4208, 1433, 5879, 5878, 1432,  122, 4019, 4018,  121
4209, 5954, 6129, 5981, 5781, 4094, 4269, 4121, 3921
4210, 5994, 5990, 5964, 5984, 4134, 4130, 4104, 4124
4211, 6076, 5984, 5964, 6016, 4216, 4124, 4104, 4156
4212,  531,  532, 6076, 6016,  678,  677, 4216, 4156
4213, 6077,  533,  534, 5874, 4217,  676,  675, 4014
4214,  535, 5873, 5874,  534,  674, 4013, 4014,  675
4215, 5789, 5873, 5871, 5938, 3929, 4013, 4011, 4078
4216, 5881, 5791, 1424, 1425, 4021, 3931,  113,  114
4217, 1425, 1426, 5882, 5881,  114,  115, 4022, 4021
4218, 1426, 1427, 5790, 5882,  115,  116, 3930, 4022
4219, 1427, 1428, 5883, 5790,  116,  117, 4023, 3930
4220, 6116, 5994, 5984, 5779, 4256, 4134, 4124, 3919
4221, 5779, 5952, 6126, 6116, 3919, 4092, 4266, 4256
4222, 3912, 5832,  346,  520, 1381, 3972,    9,   17
4223,  124,  346, 5832, 5831,    2,    9, 3972, 3971
4224, 5995, 5917, 5909, 5950, 4135, 4057, 4049, 4090
4225, 3902, 5891, 5908, 3901, 1373, 4031, 4048, 1374
4226, 5891, 3902, 3898, 5893, 4031, 1373, 1372, 4033
4227, 3904, 5894, 5892, 3903, 1370, 4034, 4032, 1371
4228, 5892, 5894, 5929, 5974, 4032, 4034, 4069, 4114
4229, 5943, 5955, 5965, 5774, 4083, 4095, 4105, 3914
4230, 5977, 5783, 5979, 5965, 4117, 3923, 4119, 4105
4231, 5955, 5943, 5953, 6106, 4095, 4083, 4093, 4246
4232, 5950, 5909, 3908, 3910, 4090, 4049, 1378, 1377
4233, 5834, 3899, 3905, 5787, 3974, 1369, 1368, 3927
4234, 5894, 5834, 5991, 5929, 4034, 3974, 4131, 4069
4235, 5775, 6020, 6015, 6112, 3915, 4160, 4155, 4252
4236, 5912, 5979, 6037, 6001, 4052, 4119, 4177, 4141
4237, 3900, 3906, 5895, 5896, 1367, 1366, 4035, 4036
4238,   25,  525, 5868, 3907,   32,  684, 4008, 1365
4239,  526,  527, 5870, 5875,  683,  682, 4010, 4015
4240, 5870, 5869, 5786, 5939, 4010, 4009, 3926, 4079
4241, 5937, 5869,  528,  529, 4077, 4009,  681,  680
4242,  527,  528, 5869, 5870,  682,  681, 4009, 4010
4243, 6007, 6029, 6006, 5777, 4147, 4169, 4146, 3917
4244, 6028, 5983, 6139, 6006, 4168, 4123, 4279, 4146
4245, 5788, 5939, 5960, 6064, 3928, 4079, 4100, 4204
4246,  529,  530, 5778, 5937,  680,  679, 3918, 4077
4247, 5871,  536,  537, 5872, 4011,  673,  672, 4012
4248,  540, 6080, 5792,  539,  669, 4220, 3932,  670
4249, 6085, 1415, 1416, 6084, 4225,  104,  105, 4224
4250, 1417, 6083, 6084, 1416,  106, 4223, 4224,  105
4251,  549, 6101, 6102,  548,  660, 4241, 4242,  661
4252,  552, 6098, 6099,  551,  657, 4238, 4239,  658
4253, 1409, 1410, 6099, 6098,   98,   99, 4239, 4238
4254,   26,  553, 6096, 6097,   31,  788, 4236, 4237
4255, 1407, 1408, 6097, 6096,   96,   97, 4237, 4236
4256, 6096, 6095, 1406, 1407, 4236, 4235,   95,   96
4257,  555,  556, 6093, 6094,  786,  785, 4233, 4234
4258, 6073,  558,  559, 1402, 4213,  783,  782,   91
4259, 1402,  559,  560, 1401,   91,  782,  781,   90
4260, 1401,  560,  561, 1400,   90,  781,  780,   89
4261, 1399,  562,  563, 1398,   88,  779,  778,   87
4262,  564, 6067, 1398,  563,  777, 4207,   87,  778
4263, 5887, 5794, 1392, 1393, 4027, 3934,   81,   82
4264, 1390, 1391, 5885, 5944,   79,   80, 4025, 4084
4265, 5968, 5798, 6014, 5988, 4108, 3938, 4154, 4128
4266, 5798, 5999, 5918, 6014, 3938, 4139, 4058, 4154
4267, 5811, 5962, 6010, 5998, 3951, 4102, 4150, 4138
4268, 6027, 6008, 5992, 5812, 4167, 4148, 4132, 3952
4269, 5824, 6039, 6017, 6034, 3964, 4179, 4157, 4174
4270, 5852, 5865, 5933, 5922, 3992, 4005, 4073, 4062
4271, 5853,  587,  588, 5862, 3993,  754,  753, 4002
4272, 5865, 5861, 5934, 5933, 4005, 4001, 4074, 4073
4273, 5862,  588,  589, 5856, 4002,  753,  752, 3996
4274,   27, 3893, 5858,  590,   36, 1364, 3998,  751
4275, 3893, 3886, 5901, 5858, 1364, 1363, 4041, 3998
4276, 5890, 5791, 5871, 5872, 4030, 3931, 4011, 4012
4277, 5791, 5890, 1423, 1424, 3931, 4030,  112,  113
4278,  539, 5792, 5847,  538,  670, 3932, 3987,  671
4279, 6081, 6080,  540,  541, 4221, 4220,  669,  668
4280, 6072, 5857, 5793, 6075, 4212, 3997, 3933, 4215
4281,  570, 5848, 5863,  569,  771, 3988, 4003,  772
4282,  569, 5863, 5850,  568,  772, 4003, 3990,  773
4283, 5944, 5885, 5927, 5971, 4084, 4025, 4067, 4111
4284, 5848,  570,  571, 5859, 3988,  771,  770, 3999
4285, 5859,  571,  572, 5854, 3999,  770,  769, 3994
4286, 5968, 5986, 5985, 5798, 4108, 4126, 4125, 3938
4287, 5968, 5988, 5971, 5921, 4108, 4128, 4111, 4061
4288, 5854,  572,  573, 5915, 3994,  769,  768, 4055
4289, 5915,  573,  574, 5866, 4055,  768,  767, 4006
4290, 5801, 5967, 5800, 6069, 3941, 4107, 3940, 4209
4291, 5986, 5916, 5967, 5985, 4126, 4056, 4107, 4125
4292, 5866,  574,  575, 5800, 4006,  767,  766, 3940
4293,  577, 5867, 5931,  576,  764, 4007, 4071,  765
4294, 5931, 5867, 5935, 5956, 4071, 4007, 4075, 4096
4295,  580, 5864, 5855,  579,  761, 4004, 3995,  762
4296, 5860, 5855, 5812, 5930, 4000, 3995, 3952, 4070
4297, 5812, 5855, 5864, 6027, 3952, 3995, 4004, 4167
4298, 6032,  581,  582, 5849, 4172,  760,  759, 3989
4299, 6034, 6017, 5849, 5823, 4174, 4157, 3989, 3963
4300, 5858, 5901, 5932, 5856, 3998, 4041, 4072, 3996
4301, 5899, 5907, 3894, 3888, 4039, 4047, 1361, 1360
4302, 5899, 5947, 6110, 5907, 4039, 4087, 4250, 4047
4303, 6115, 5825, 6040, 6033, 4255, 3965, 4180, 4173
4304, 6043, 6057, 6049, 5819, 4183, 4197, 4189, 3959
4305, 6053, 6036, 6049, 6144, 4193, 4176, 4189, 4284
4306, 6041, 6061, 6058, 6141, 4181, 4201, 4198, 4281
4307, 6026, 6140, 6136, 5987, 4166, 4280, 4276, 4127
4308, 1385, 5884, 5877, 1384,   74, 4024, 4017,   73
4309, 6108, 5877, 5884, 5951, 4248, 4017, 4024, 4091
4310, 5876, 5880, 1387, 1388, 4016, 4020,   76,   77
4311, 5796, 5876, 1388, 1389, 3936, 4016,   77,   78
4312, 5947, 5899, 5903, 5993, 4087, 4039, 4043, 4133
4313, 3888, 3895, 5903, 5899, 1360, 1359, 4043, 4039
4314, 6070, 5948, 5828, 5906, 4210, 4088, 3968, 4046
4315, 5993, 5903, 5906, 5828, 4133, 4043, 4046, 3968
4316, 6049, 6057, 6062, 6137, 4189, 4197, 4202, 4277
4317, 6059, 6038, 6031, 5815, 4199, 4178, 4171, 3955
4318, 5809, 5996, 6009, 6050, 3949, 4136, 4149, 4190
4319, 5976, 6118, 5803, 6136, 4116, 4258, 3943, 4276
4320, 5888, 5945, 1382, 1383, 4028, 4085,   71,   72
4321, 5877, 6108, 5936, 5888, 4017, 4248, 4076, 4028
4322, 5886, 5884, 1385, 1386, 4026, 4024,   74,   75
4323, 3891, 5904, 5900, 3896, 1355, 4044, 4040, 1356
4324, 6105, 6066, 5904, 5905, 4245, 4206, 4044, 4045
4325, 5835, 5919, 5941, 5817, 3975, 4059, 4081, 3957
4326, 5966, 5978, 6012, 5919, 4106, 4118, 4152, 4059
4327, 5842, 3882, 3883, 5845, 3982, 1346, 1345, 3985
4328, 3875,  462,  404, 5840, 1336,   18,   14, 3980
4329, 5838, 5836, 3872, 3873, 3978, 3976, 1340, 1339
4330, 5833, 5925, 5923, 5807, 3973, 4065, 4063, 3947
4331, 5945, 6048,  178, 1382, 4085, 4188,    1,   71
4332, 6022, 6023, 5958, 6018, 4162, 4163, 4098, 4158
4333, 6022, 6024, 6002, 6130, 4162, 4164, 4142, 4270
4334, 6013, 5997, 6002, 6031, 4153, 4137, 4142, 4171
4335, 3897, 5902, 5905, 3892, 1353, 4042, 4045, 1354
4336, 5807, 3878, 3884, 5833, 3947, 1344, 1343, 3973
4337, 5925, 5833, 5836, 5838, 4065, 3973, 3976, 3978
4338, 5924, 5851, 5850, 5887, 4064, 3991, 3990, 4027
4339, 1412, 6101, 6100, 1411,  101, 4241, 4240,  100
4340, 5792, 6080, 6089, 6090, 3932, 4220, 4229, 4230
4341, 5954, 5942, 5878, 6113, 4094, 4082, 4018, 4253
4342, 6112, 5879, 5889, 5775, 4252, 4019, 4029, 3915
4343, 6005, 5781, 5981, 5780, 4145, 3921, 4121, 3920
4344, 1429, 1430, 6092, 6019,  118,  119, 4232, 4159
4345, 6112, 6015, 6128, 6113, 4252, 4155, 4268, 4253
4346, 5983, 5960, 5939, 5786, 4123, 4100, 4079, 3926
4347, 3904, 3899, 5834, 5894, 1370, 1369, 3974, 4034
4348, 5799, 6035, 5961, 5911, 3939, 4175, 4101, 4051
4349, 5880, 5918, 5969, 5799, 4020, 4058, 4109, 3939
4350, 6134, 6003, 6026, 5987, 4274, 4143, 4166, 4127
4351, 6021, 6011, 5982, 6004, 4161, 4151, 4122, 4144
4352, 5843, 3877, 3882, 5842, 3983, 1347, 1346, 3982
4353, 5805, 6023, 5808, 5914, 3945, 4163, 3948, 4054
4354, 6013, 5822, 6104, 5997, 4153, 3962, 4244, 4137
4355, 5817, 5941, 5940, 5844, 3957, 4081, 4080, 3984
4356, 3880, 5844, 5846, 3879, 1350, 3984, 3986, 1351
4357, 5926, 5925, 5838, 5837, 4066, 4065, 3978, 3977
4358, 5839, 5837, 3871, 3874, 3979, 3977, 1338, 1337
4359, 5817, 3876, 3881, 5835, 3957, 1349, 1348, 3975
4360, 5919, 5835, 5843, 5966, 4059, 3975, 3983, 4106
4361, 6118, 5976, 5996, 5972, 4258, 4116, 4136, 4112
4362, 6141, 6026, 6003, 6041, 4281, 4166, 4143, 4181
4363, 6119, 5992, 6010, 5962, 4259, 4132, 4150, 4102
4364, 5813, 5992, 6008, 6030, 3953, 4132, 4148, 4170
4365, 5810, 6009, 5996, 5976, 3950, 4149, 4136, 4116
4366, 6040, 5825, 6062, 6052, 4180, 3965, 4202, 4192
4367, 6043, 5819, 6046, 6039, 4183, 3959, 4186, 4179
4368, 6013, 6031, 6038, 5821, 4153, 4171, 4178, 3961
4369, 1352, 5897, 5902, 3897,   68, 4037, 4042, 1353
4370, 6055, 6066, 6105, 6114, 4195, 4206, 4245, 4254
4371, 5993, 5828, 6033, 6000, 4133, 3968, 4173, 4140
4372, 5852, 5922, 6034, 5823, 3992, 4062, 4174, 3963
4373, 6135, 6063, 6055, 6060, 4275, 4203, 4195, 4200
4374, 5900, 6070, 3890, 3896, 4040, 4210, 1357, 1356
4375,  586, 5861, 5865,  585,  755, 4001, 4005,  756
4376, 6048, 5958, 6023, 5805, 4188, 4098, 4163, 3945
4377, 5832, 3912, 1380, 3909, 3972, 1381,   70, 1379
4378, 5909, 5832, 3909, 3908, 4049, 3972, 1379, 1378
4379, 3910, 3911, 5908, 5950, 1377, 1376, 4048, 4090
4380, 3911, 1375, 3901, 5908, 1376,   69, 1374, 4048
4381, 3903, 5892, 5893, 3898, 1371, 4032, 4033, 1372
4382, 5896, 5787, 3905, 3900, 4036, 3927, 1368, 1367
4383, 5868, 5895, 3906, 3907, 4008, 4035, 1366, 1365
4384, 5875, 5868,  525,  526, 4015, 4008,  684,  683
4385, 5778,  530,  531, 6016, 3918,  679,  678, 4156
4386, 6076,  532,  533, 6077, 4216,  677,  676, 4217
4387, 6088, 6089, 6080, 6081, 4228, 4229, 4220, 4221
4388, 6081, 6082, 6087, 6088, 4221, 4222, 4227, 4228
4389,  545,  546, 6085, 6084,  664,  663, 4225, 4224
4390, 6097, 1408, 1409, 6098, 4237,   97,   98, 4238
4391, 6094, 6093, 1404, 1405, 4234, 4233,   93,   94
4392, 1400,  561,  562, 1399,   89,  780,  779,   88
4393, 6072, 6071,  565, 5857, 4212, 4211,  776, 3997
4394, 5857,  565,  566, 5793, 3997,  776,  775, 3933
4395,  566,  567, 5851, 5793,  775,  774, 3991, 3933
4396,  578, 5860, 5867,  577,  763, 4000, 4007,  764
4397,  579, 5855, 5860,  578,  762, 3995, 4000,  763
4398, 5864,  580,  581, 6032, 4004,  761,  760, 4172
4399, 5849,  582,  583, 5823, 3989,  759,  758, 3963
4400, 5823,  583,  584, 5852, 3963,  758,  757, 3992
4401,  587, 5853, 5861,  586,  754, 3993, 4001,  755
4402,  590, 5858, 5856,  589,  751, 3998, 3996,  752
4403, 5906, 5903, 3895, 3889, 4046, 4043, 1359, 1358
4404, 3879, 5846, 5897, 1352, 1351, 3986, 4037,   68
4405, 3876, 5817, 5844, 3880, 1349, 3957, 3984, 1350
4406, 5835, 3881, 3877, 5843, 3975, 1348, 1347, 3983
4407, 3878, 5807, 5845, 3883, 1344, 3947, 3985, 1345
4408, 5836, 3885, 1341, 3872, 3976, 1342,   67, 1340
4409, 6079, 5840,  404, 5830, 4219, 3980,   14, 3970
4410, 5943, 5774, 5889, 1434, 4083, 3914, 4029,  123
4411, 6092, 1430, 1431, 5942, 4232,  119,  120, 4082
4412, 6019, 5883, 1428, 1429, 4159, 4023,  117,  118
4413, 1421, 1422, 6091, 6090,  110,  111, 4231, 4230
4414, 1418, 6087,  543, 1417,  107, 4227,  666,  106
4415, 1415, 6085, 6086, 1414,  104, 4225, 4226,  103
4416, 1414, 6086, 6102, 1413,  103, 4226, 4242,  102
4417, 6100, 6099, 1410, 1411, 4240, 4239,   99,  100
4418, 1403, 1404, 6093, 6074,   92,   93, 4233, 4214
4419, 6074, 6073, 1402, 1403, 4214, 4213,   91,   92
4420, 1397, 1398, 6067, 6071,   86,   87, 4207, 4211
4421, 1395, 6075, 5924, 1394,   84, 4215, 4064,   83
4422, 5887, 5850, 5973, 5794, 4027, 3990, 4113, 3934
4423, 1391, 1392, 5794, 5885,   80,   81, 3934, 4025
4424, 5944, 5796, 1389, 1390, 4084, 3936,   78,   79
4425, 1386, 1387, 5880, 5886,   75,   76, 4020, 4026
4426, 5877, 5888, 1383, 1384, 4017, 4028,   72,   73
4427, 6078, 5830,  404,  178, 4218, 3970,   14,    1
4428, 5917, 5831, 5832, 5909, 4057, 3971, 3972, 4049
4429, 3885, 5836, 5833, 3884, 1342, 3976, 3973, 1343
4430, 5975, 5949, 5834, 5787, 4115, 4089, 3974, 3927
4431, 6125, 5991, 5834, 5949, 4265, 4131, 3974, 4089
4432, 5840, 5839, 3874, 3875, 3980, 3979, 1337, 1336
4433, 5910, 5926, 5837, 5839, 4050, 4066, 3977, 3979
4434, 5837, 5838, 3873, 3871, 3977, 3978, 1339, 1338
4435, 5806, 5923, 5925, 5926, 3946, 4063, 4065, 4066
4436, 5910, 5839, 5840, 6079, 4050, 3979, 3980, 4219
4437, 5805, 5914, 5841, 6078, 3945, 4054, 3981, 4218
4438, 6123, 5978, 6111, 5959, 4263, 4118, 4251, 4099
4439, 5845, 5928, 5773, 5842, 3985, 4068, 3913, 3982
4440, 5966, 5843, 5842, 5773, 4106, 3983, 3982, 3913
4441, 6104, 5846, 5844, 5940, 4244, 3986, 3984, 4080
4442, 5928, 5845, 5807, 5923, 4068, 3985, 3947, 4063
4443, 5822, 5897, 5846, 6104, 3962, 4037, 3986, 4244
4444,  538, 5847, 5872,  537,  671, 3987, 4012,  672
4445, 5863, 5848, 5795, 5927, 4003, 3988, 3935, 4067
4446, 5818, 6032, 5849, 6017, 3958, 4172, 3989, 4157
4447, 5851,  567,  568, 5850, 3991,  774,  773, 3990
4448, 5852,  584,  585, 5865, 3992,  757,  756, 4005
4449, 5861, 5853, 5829, 5934, 4001, 3993, 3969, 4074
4450, 5854, 6107, 5921, 5859, 3994, 4247, 4061, 3999
4451, 5898, 5901, 3886, 3887, 4038, 4041, 1363, 1362
4452, 5901, 5898, 6109, 5932, 4041, 4038, 4249, 4072
4453,  565, 6071, 6067,  564,  776, 4211, 4207,  777
4454, 5795, 5848, 5859, 5921, 3935, 3988, 3999, 4061
4455, 5867, 5860, 5930, 5935, 4007, 4000, 4070, 4075
4456, 5856, 5932, 6103, 5862, 3996, 4072, 4243, 4002
4457, 5885, 5794, 5973, 5927, 4025, 3934, 4113, 4067
4458, 6056, 6047, 5922, 5933, 4196, 4187, 4062, 4073
4459, 5916, 5866, 5800, 5967, 4056, 4006, 3940, 4107
4460, 5916, 5797, 5915, 5866, 4056, 3937, 4055, 4006
4461, 5875, 5788, 5895, 5868, 4015, 3928, 4035, 4008
4462, 5786, 5869, 5937, 5957, 3926, 4009, 4077, 4097
4463, 5788, 5875, 5870, 5939, 3928, 4015, 4010, 4079
4464, 5791, 5881, 5938, 5871, 3931, 4021, 4078, 4011
4465, 5873,  535,  536, 5871, 4013,  674,  673, 4011
4466, 6091, 5890, 5872, 5847, 4231, 4030, 4012, 3987
4467, 5952, 5874, 5873, 5789, 4092, 4014, 4013, 3929
4468, 6126, 5952, 5789, 5920, 4266, 4092, 3929, 4060
4469, 5952, 5779, 6077, 5874, 4092, 3919, 4217, 4014
4470, 5876, 5796, 5988, 6014, 4016, 3936, 4128, 4154
4471, 6014, 5918, 5880, 5876, 4154, 4058, 4020, 4016
4472, 5942, 1431, 1432, 5878, 4082,  120,  121, 4018
4473, 1434, 5889, 5879, 1433,  123, 4029, 4019,  122
4474, 5911, 5886, 5880, 5799, 4051, 4026, 4020, 3939
4475, 5938, 5881, 5882, 5789, 4078, 4021, 4022, 3929
4476, 5789, 5882, 5790, 5920, 3929, 4022, 3930, 4060
4477, 6019, 6005, 5970, 5883, 4159, 4145, 4110, 4023
4478, 5951, 5884, 5886, 5911, 4091, 4024, 4026, 4051
4479, 5850, 5863, 5927, 5973, 3990, 4003, 4067, 4113
4480, 5924, 5887, 1393, 1394, 4064, 4027,   82,   83
4481, 5936, 5804, 5945, 5888, 4076, 3944, 4085, 4028
4482, 5775, 5889, 5774, 5912, 3915, 4029, 3914, 4052
4483, 5782, 5891, 5893, 5913, 3922, 4031, 4033, 4053
4484, 5950, 5908, 5891, 5782, 4090, 4048, 4031, 3922
4485, 5893, 5892, 5974, 5783, 4033, 4032, 4114, 3923
4486, 5977, 5913, 5893, 5783, 4117, 4053, 4033, 3923
4487, 6064, 5896, 5895, 5788, 4204, 4036, 4035, 3928
4488, 5787, 5896, 6064, 5975, 3927, 4036, 4204, 4115
4489, 5946, 5902, 5897, 5822, 4086, 4042, 4037, 3962
4490, 5907, 5898, 3887, 3894, 4047, 4038, 1362, 1361
4491, 5948, 5826, 6063, 6115, 4088, 3966, 4203, 4255
4492, 5821, 5946, 5822, 6013, 3961, 4086, 3962, 4153
4493, 3892, 5905, 5904, 3891, 1354, 4045, 4044, 1355
4494, 6066, 5826, 5900, 5904, 4206, 3966, 4040, 4044
4495, 6105, 5905, 5902, 5946, 4245, 4045, 4042, 4086
4496, 6070, 5906, 3889, 3890, 4210, 4046, 1358, 1357
4497, 6120, 5910, 6079, 5830, 4260, 4050, 4219, 3970
4498, 5802, 6035, 5799, 5969, 3942, 4175, 3939, 4109
4499, 5951, 5911, 5961, 6117, 4091, 4051, 4101, 4257
4500, 5913, 5977, 6106, 5995, 4053, 4117, 4246, 4135
4501, 5978, 5966, 5773, 6111, 4118, 4106, 3913, 4251
4502, 5854, 5915, 5797, 6107, 3994, 4055, 3937, 4247
4503, 6025, 5999, 5798, 5985, 4165, 4139, 3938, 4125
4504, 6012, 5963, 5941, 5919, 4152, 4103, 4081, 4059
4505, 5920, 5790, 5883, 5970, 4060, 3930, 4023, 4110
4506, 5927, 5795, 5921, 5971, 4067, 3935, 4061, 4111
4507, 5986, 5968, 5921, 6107, 4126, 4108, 4061, 4247
4508, 5824, 6034, 5922, 6047, 3964, 4174, 4062, 4187
4509, 5989, 5928, 5923, 5806, 4129, 4068, 4063, 3946
4510, 6120, 5841, 5959, 6111, 4260, 3981, 4099, 4251
4511, 5991, 5784, 5974, 5929, 4131, 3924, 4114, 4069
4512, 5992, 6119, 5930, 5812, 4132, 4259, 4070, 3952
4513, 5962, 5935, 5930, 6119, 4102, 4075, 4070, 4259
4514,  576, 5931, 5800,  575,  765, 4071, 3940,  766
4515, 6110, 6103, 5932, 6109, 4250, 4243, 4072, 4249
4516, 5934, 5827, 6056, 5933, 4074, 3967, 4196, 4073
4517, 5827, 5934, 5829, 5947, 3967, 4074, 3969, 4087
4518, 5962, 5811, 5956, 5935, 4102, 3951, 4096, 4075
4519, 6016, 5964, 5937, 5778, 4156, 4104, 4077, 3918
4520, 5777, 5957, 5937, 5964, 3917, 4097, 4077, 4104
4521, 5940, 5816, 5997, 6104, 4080, 3956, 4137, 4244
4522, 5816, 5940, 5941, 5963, 3956, 4080, 4081, 4103
4523, 5954, 5781, 6092, 5942, 4094, 3921, 4232, 4082
4524, 5917, 5953,  124, 5831, 4057, 4093,    2, 3971
4525, 6048, 5945, 5804, 5958, 4188, 4085, 3944, 4098
4526, 5821, 6114, 6105, 5946, 3961, 4254, 4245, 4086
4527, 6103, 6110, 5947, 5829, 4243, 4250, 4087, 3969
4528, 5900, 5826, 5948, 6070, 4040, 3966, 4088, 4210
4529, 5948, 6115, 6033, 5828, 4088, 4255, 4173, 3968
4530, 6064, 5960, 5785, 5975, 4204, 4100, 3925, 4115
4531, 5913, 5995, 5950, 5782, 4053, 4135, 4090, 3922
4532, 6117, 5803, 6108, 5951, 4257, 3943, 4248, 4091
4533, 5995, 6106, 5953, 5917, 4135, 4246, 4093, 4057
4534, 5776, 6028, 6006, 6029, 3916, 4168, 4146, 4169
4535, 6106, 5977, 5965, 5955, 4246, 4117, 4105, 4095
4536, 6069, 5956, 5811, 5982, 4209, 4096, 3951, 4122
4537, 6011, 5801, 6069, 5982, 4151, 3941, 4209, 4122
4538, 5957, 6139, 5983, 5786, 4097, 4279, 4123, 3926
4539, 6018, 5958, 5804, 5972, 4158, 4098, 3944, 4112
4540, 6111, 5773, 5928, 5989, 4251, 3913, 4068, 4129
4541, 6123, 5959, 5841, 5914, 4263, 4099, 3981, 4054
4542, 5949, 5975, 5785, 6131, 4089, 4115, 3925, 4271
4543, 5980, 5963, 6012, 6124, 4120, 4103, 4152, 4264
4544, 5784, 5979, 5783, 5974, 3924, 4119, 3923, 4114
4545, 5979, 5912, 5774, 5965, 4119, 4052, 3914, 4105
4546, 5806, 6120, 6111, 5989, 3946, 4260, 4251, 4129
4547, 6025, 5985, 5967, 5801, 4165, 4125, 4107, 3941
4548, 5956, 6069, 5800, 5931, 4096, 4209, 3940, 4071
4549, 5918, 5999, 6025, 5969, 4058, 4139, 4165, 4109
4550, 5988, 5796, 5944, 5971, 4128, 3936, 4084, 4111
4551, 5809, 6018, 5972, 5996, 3949, 4158, 4112, 4136
4552, 5972, 5804, 5936, 6118, 4112, 3944, 4076, 4258
4553, 6136, 5803, 6117, 5987, 4276, 3943, 4257, 4127
4554, 6124, 6012, 5978, 6123, 4264, 4152, 4118, 4263
4555, 6130, 5980, 6124, 5808, 4270, 4120, 4264, 3948
4556, 6121, 6037, 5979, 5784, 4261, 4177, 4119, 3924
4557, 6018, 5809, 6024, 6022, 4158, 3949, 4164, 4162
4558, 6133, 5816, 5963, 5980, 4273, 3956, 4103, 4120
4559, 5981, 6007, 5990, 5780, 4121, 4147, 4130, 3920
4560, 5982, 5811, 5998, 6004, 4122, 3951, 4138, 4144
4561, 6065, 6132, 5983, 6028, 4205, 4272, 4123, 4168
4562, 5785, 5960, 5983, 6132, 3925, 4100, 4123, 4272
4563, 6021, 6003, 6134, 5802, 4161, 4143, 4274, 3942
4564, 5810, 5976, 6136, 6140, 3950, 4116, 4276, 4280
4565, 6007, 5777, 5964, 5990, 4147, 3917, 4104, 4130
4566, 6015, 6020, 6065, 6042, 4155, 4160, 4205, 4182
4567, 6003, 5998, 6010, 6041, 4143, 4138, 4150, 4181
4568, 6000, 5827, 5947, 5993, 4140, 3967, 4087, 4133
4569, 6122, 5780, 5990, 5994, 4262, 3920, 4130, 4134
4570, 6050, 6009, 6058, 6051, 4190, 4149, 4198, 4191
4571, 6002, 5997, 5816, 6133, 4142, 4137, 3956, 4273
4572, 6004, 5998, 6003, 6021, 4144, 4138, 4143, 4161
4573, 5969, 6025, 5801, 6011, 4109, 4165, 3941, 4151
4574, 6040, 6047, 6056, 6127, 4180, 4187, 4196, 4267
4575, 6065, 6020, 6001, 6037, 4205, 4160, 4141, 4177
4576, 6020, 5775, 5912, 6001, 4160, 3915, 4052, 4141
4577, 5815, 6031, 6002, 6024, 3955, 4171, 4142, 4164
4578, 6011, 6021, 5802, 5969, 4151, 4161, 3942, 4109
4579, 5970, 6005, 5780, 6122, 4110, 4145, 3920, 4262
4580, 5957, 5777, 6006, 6139, 4097, 3917, 4146, 4279
4581, 6007, 5981, 6129, 6029, 4147, 4121, 4269, 4169
4582, 6027, 5818, 6046, 6008, 4167, 3958, 4186, 4148
4583, 6141, 6058, 6009, 5810, 4281, 4198, 4149, 3950
4584, 5815, 6024, 5809, 6050, 3955, 4164, 3949, 4190
4585, 5992, 5813, 6068, 6010, 4132, 3953, 4208, 4150
4586, 5776, 6128, 6015, 6042, 3916, 4268, 4155, 4182
4587, 6092, 5781, 6005, 6019, 4232, 3921, 4145, 4159
4588, 6130, 5808, 6023, 6022, 4270, 3948, 4163, 4162
4589, 5914, 5808, 6124, 6123, 4054, 3948, 4264, 4263
4590, 5980, 6130, 6002, 6133, 4120, 4270, 4142, 4273
4591, 6134, 5961, 6035, 5802, 4274, 4101, 4175, 3942
4592, 5818, 6027, 5864, 6032, 3958, 4167, 4004, 4172
4593, 6049, 6036, 6030, 5819, 4189, 4176, 4170, 3959
4594, 6050, 6051, 6059, 5815, 4190, 4191, 4199, 3955
4595, 5824, 6052, 6043, 6039, 3964, 4192, 4183, 4179
4596, 6039, 6046, 5818, 6017, 4179, 4186, 3958, 4157
4597, 6008, 6046, 5819, 6030, 4148, 4186, 3959, 4170
4598, 6044, 5813, 6030, 6036, 4184, 3953, 4170, 4176
4599, 6125, 6121, 5784, 5991, 4265, 4261, 3924, 4131
4600, 5949, 6131, 6121, 6125, 4089, 4271, 4261, 4265
4601, 6053, 6054, 6059, 6143, 4193, 4194, 4199, 4283
4602, 6059, 6054, 6045, 6038, 4199, 4194, 4185, 4178
4603, 5824, 6047, 6040, 6052, 3964, 4187, 4180, 4192
4604, 5813, 6044, 6142, 6068, 3953, 4184, 4282, 4208
4605, 5776, 6042, 6065, 6028, 3916, 4182, 4205, 4168
4606, 6068, 6142, 6058, 6061, 4208, 4282, 4198, 4201
4607, 6114, 6045, 6060, 6055, 4254, 4185, 4200, 4195
4608, 5821, 6038, 6045, 6114, 3961, 4178, 4185, 4254
4609, 6078,  178, 6048, 5805, 4218,    1, 4188, 3945
4610, 6144, 5820, 6054, 6053, 4284, 3960, 4194, 4193
4611, 6051, 5814, 6143, 6059, 4191, 3954, 4283, 4199
4612, 6044, 6036, 6053, 6143, 4184, 4176, 4193, 4283
4613, 6060, 6045, 6054, 5820, 4200, 4185, 4194, 3960
4614, 6063, 5826, 6066, 6055, 4203, 3966, 4206, 4195
4615, 5827, 6000, 6127, 6056, 3967, 4140, 4267, 4196
4616, 6057, 6043, 6052, 6062, 4197, 4183, 4192, 4202
4617, 5810, 6140, 6026, 6141, 3950, 4280, 4166, 4281
4618, 6142, 5814, 6051, 6058, 4282, 3954, 4191, 4198
4619, 6010, 6068, 6061, 6041, 4150, 4208, 4201, 4181
4620, 6137, 6062, 5825, 6135, 4277, 4202, 3965, 4275
4621, 5825, 6115, 6063, 6135, 3965, 4255, 4203, 4275
4622, 6131, 6138, 6037, 6121, 4271, 4278, 4177, 4261
4623, 6132, 6065, 6037, 6138, 4272, 4205, 4177, 4278
4624, 6072, 1396, 1397, 6071, 4212,   85,   86, 4211
4625, 1396, 6072, 6075, 1395,   85, 4212, 4215,   84
4626,  558, 6073, 6074,  557,  783, 4213, 4214,  784
4627, 6075, 5793, 5851, 5924, 4215, 3933, 3991, 4064
4628, 6077, 5779, 5984, 6076, 4217, 3919, 4124, 4216
4629, 6078, 5841, 6120, 5830, 4218, 3981, 4260, 3970
4630, 6082, 6081,  541,  542, 4222, 4221,  668,  667
4631, 6082,  542,  543, 6087, 4222,  667,  666, 4227
4632, 1418, 1419, 6088, 6087,  107,  108, 4228, 4227
4633,  543,  544, 6083, 1417,  666,  665, 4223,  106
4634, 6083,  544,  545, 6084, 4223,  665,  664, 4224
4635,  547, 6086, 6085,  546,  662, 4226, 4225,  663
4636, 1419, 1420, 6089, 6088,  108,  109, 4229, 4228
4637, 6090, 6089, 1420, 1421, 4230, 4229,  109,  110
4638, 1422, 1423, 5890, 6091,  111,  112, 4030, 4231
4639, 6074, 6093,  556,  557, 4214, 4233,  785,  784
4640, 1405, 1406, 6095, 6094,   94,   95, 4235, 4234
4641, 6094, 6095,  554,  555, 4234, 4235,  787,  786
4642, 6095, 6096,  553,  554, 4235, 4236,  788,  787
4643, 6098,  552,   26, 6097, 4238,  657,   31, 4237
4644, 6100,  550,  551, 6099, 4240,  659,  658, 4239
4645,  549,  550, 6100, 6101,  660,  659, 4240, 4241
4646, 6102, 6101, 1412, 1413, 4242, 4241,  101,  102
4647, 6086,  547,  548, 6102, 4226,  662,  661, 4242
4648, 5862, 6103, 5829, 5853, 4002, 4243, 3969, 3993
4649, 6118, 5936, 6108, 5803, 4258, 4076, 4248, 3943
4650, 5847, 5792, 6090, 6091, 3987, 3932, 4230, 4231
4651, 6110, 6109, 5898, 5907, 4250, 4249, 4038, 4047
4652, 6113, 5878, 5879, 6112, 4253, 4018, 4019, 4252
4653, 5994, 6116, 6126, 6122, 4134, 4256, 4266, 4262
4654, 5987, 6117, 5961, 6134, 4127, 4257, 4101, 4274
4655, 5910, 6120, 5806, 5926, 4050, 4260, 3946, 4066
4656, 6122, 6126, 5920, 5970, 4262, 4266, 4060, 4110
4657, 5916, 5986, 6107, 5797, 4056, 4126, 4247, 3937
4658, 6000, 6033, 6040, 6127, 4140, 4173, 4180, 4267
4659, 6029, 6129, 6128, 5776, 4169, 4269, 4268, 3916
4660, 6129, 5954, 6113, 6128, 4269, 4094, 4253, 4268
4661, 5820, 6137, 6135, 6060, 3960, 4277, 4275, 4200
4662, 6132, 6138, 6131, 5785, 4272, 4278, 4271, 3925
4663, 5814, 6142, 6044, 6143, 3954, 4282, 4184, 4283
4664, 5820, 6144, 6049, 6137, 3960, 4284, 4189, 4277
*Nset, nset=SET-1
    9,   10,   11,   12,   13,   14,   15,   16,   17,   18,   19,   20,   21,   22,   23,   24
  293,  294,  295,  296,  297,  298,  299,  300,  301,  302,  303,  304,  305,  306,  307,  308
  309,  310,  311,  312,  313,  314,  315,  316,  317,  318,  319,  320,  321,  322,  323,  324
  325,  326,  327,  328,  329,  330,  331,  332,  333,  334,  335,  336,  337,  338,  339,  340
  341,  342,  343,  344,  345,  346,  347,  348,  349,  350,  351,  352,  353,  354,  355,  356
  357,  358,  359,  360,  361,  362,  363,  364,  365,  366,  367,  368,  369,  370,  371,  372
  373,  374,  375,  376,  377,  378,  379,  380,  381,  382,  383,  384,  385,  386,  387,  388
  389,  390,  391,  392,  393,  394,  395,  396,  397,  398,  399,  400,  401,  402,  403,  404
  405,  406,  407,  408,  409,  410,  411,  412,  413,  414,  415,  416,  417,  418,  419,  420
  421,  422,  423,  424,  425,  426,  427,  428,  429,  430,  431,  432,  433,  434,  435,  436
  437,  438,  439,  440,  441,  442,  443,  444,  445,  446,  447,  448,  449,  450,  451,  452
  453,  454,  455,  456,  457,  458,  459,  460,  461,  462,  463,  464,  465,  466,  467,  468
  469,  470,  471,  472,  473,  474,  475,  476,  477,  478,  479,  480,  481,  482,  483,  484
  485,  486,  487,  488,  489,  490,  491,  492,  493,  494,  495,  496,  497,  498,  499,  500
  501,  502,  503,  504,  505,  506,  507,  508,  509,  510,  511,  512,  513,  514,  515,  516
  517,  518,  519,  520,  521,  522,  523,  524, 1647, 1648, 1649, 1650, 1651, 1652, 1653, 1654
 1655, 1656, 1657, 1658, 1659, 1660, 1661, 1662, 1663, 1664, 1665, 1666, 1667, 1668, 1669, 1670
 1671, 1672, 1673, 1674, 1675, 1676, 1677, 1678, 1679, 1680, 1681, 1682, 1683, 1684, 1685, 1686
 1687, 1688, 1689, 1690, 1691, 1692, 1693, 1694, 1695, 1696, 1697, 1698, 1699, 1700, 1701, 1702
 1703, 1704, 1705, 1706, 1707, 1708, 1709, 1710, 1711, 1712, 1713, 1714, 1715, 1716, 1717, 1718
 1719, 1720, 1721, 1722, 1723, 1724, 1725, 1726, 1727, 1728, 1729, 1730, 1731, 1732, 1733, 1734
 1735, 1736, 1737, 1738, 1739, 1740, 1741, 1742, 1743, 1744, 1745, 1746, 1747, 1748, 1749, 1750
 1751, 1752, 1753, 1754, 1755, 1756, 1757, 1758, 1759, 1760, 1761, 1762, 1763, 1764, 1765, 1766
 1767, 1768, 1769, 1770, 1771, 1772, 1773, 1774, 1775, 1776, 1777, 1778, 1779, 1780, 1781, 1782
 1783, 1784, 1785, 1786, 1787, 1788, 1789, 1790, 1791, 1792, 1793, 1794, 1795, 1796, 1797, 1798
 1799, 1800, 1801, 1802, 1803, 1804, 1805, 1806, 1807, 1808, 1809, 1810, 1811, 1812, 1813, 1814
 1815, 1816, 1817, 1818, 1819, 1820, 1821, 1822, 1823, 1824, 1825, 1826, 1827, 1828, 1829, 1830
 1831, 1832, 1833, 1834, 1835, 1836, 1837, 1838, 1839, 1840, 1841, 1842, 1843, 1844, 1845, 1846
 1847, 1848, 1849, 1850, 1851, 1852, 1853, 1854, 1855, 1856, 1857, 1858, 1859, 1860, 1861, 1862
 1863, 1864, 1865, 1866, 1867, 1868, 1869, 1870, 1871, 1872, 1873, 1874, 1875, 1876, 1877, 1878
 1879, 1880, 1881, 1882, 1883, 1884, 1885, 1886, 1887, 1888, 1889, 1890, 1891, 1892, 1893, 1894
 1895, 1896, 1897, 1898, 1899, 1900, 1901, 1902, 1903, 1904, 1905, 1906, 1907, 1908, 1909, 1910
 1911, 1912, 1913, 1914, 1915, 1916, 1917, 1918, 1919, 1920, 1921, 1922, 1923, 1924, 1925, 1926
 1927, 1928, 1929, 1930, 1931, 1932, 1933, 1934, 1935, 1936, 1937, 1938, 1939, 1940, 1941, 1942
 1943, 1944, 1945, 1946, 1947, 1948, 1949, 1950, 1951, 1952, 1953, 1954, 1955, 1956, 1957, 1958
 1959, 1960, 1961, 1962, 1963, 1964, 1965, 1966, 1967, 1968, 1969, 1970, 1971, 1972, 1973, 1974
 1975, 1976, 1977, 1978, 1979, 1980, 1981, 1982, 1983, 1984, 1985, 1986, 1987, 1988, 1989, 1990
 1991, 1992, 1993, 1994, 1995, 1996, 1997, 1998, 1999, 2000, 2001, 2002, 2003, 2004, 2005, 2006
 2007, 2008, 2009, 2010, 2011, 2012, 2013, 2014, 2015, 2016, 2017, 2018, 2019, 2020, 2021, 2022
 2023, 2024, 2025, 2026, 2027, 2028, 2029, 2030, 2031, 2032, 2033, 2034, 2035, 2036, 2037, 2038
 2039, 2040, 2041, 2042, 2043, 2044, 2045, 2046, 2047, 2048, 2049, 2050, 2051, 2052, 2053, 2054
 2055, 2056, 2057, 2058, 2059, 2060, 2061, 2062, 2063, 2064, 2065, 2066, 2067, 2068, 2069, 2070
 2071, 2072, 2073, 2074, 2075, 2076, 2077, 2078, 2079, 2080, 2081, 2082, 2083, 2084, 2085, 2086
 2087, 2088, 2089, 2090, 2091, 2092, 2093, 2094, 2095, 2096, 2097, 2098, 2099, 2100, 2101, 2102
 2103, 2104, 2105, 2106, 2107, 2108, 2109, 2110, 2111, 2112, 2113, 2114, 2115, 2116, 2117, 2118
 2119, 2120, 2121, 2122, 2123, 2124, 2125, 2126, 2127, 2128, 2129, 2130, 2131, 2132, 2133, 2134
 2135, 2136, 2137, 2138, 2139, 2140, 2141, 2142, 2143, 2144, 2145, 2146, 2147, 2148, 2149, 2150
 2151, 2152, 2153, 2154, 2155, 2156, 2157, 2158, 2159, 2160, 2161, 2162, 2163, 2164, 2165, 2166
 2167, 2168, 2169, 2170, 2171, 2172, 2173, 2174, 2175, 2176, 2177, 2178, 2179, 2180, 2181, 2182
 2183, 2184, 2185, 2186, 2187, 2188, 2189, 2190, 2191, 2192, 2193, 2194, 2195, 2196, 2197, 2198
 2199, 2200, 2201, 2202, 2203, 2204, 2205, 2206, 2207, 2208, 2209, 2210, 2211, 2212, 2213, 2214
 2215, 2216, 2217, 2218, 2219, 2220, 2221, 2222, 2223, 2224, 2225, 2226, 2227, 2228, 2229, 2230
 2231, 2232, 2233, 2234, 2235, 2236, 2237, 2238, 2239, 2240, 2241, 2242, 2243, 2244, 2245, 2246
 2247, 2248, 2249, 2250, 2251, 2252, 2253, 2254, 2255, 2256, 2257, 2258, 2259, 2260, 2261, 2262
 2263, 2264, 2265, 2266, 2267, 2268, 2269, 2270, 2271, 2272, 2273, 2274, 2275, 2276, 2277, 2278
 2279, 2280, 2281, 2282, 2283, 2284, 2285, 2286, 2287, 2288, 2289, 2290, 2291, 2292, 2293, 2294
 2295, 2296, 2297, 2298, 2299, 2300, 2301, 2302, 2303, 2304, 2305, 2306, 2307, 2308, 2309, 2310
 2311, 2312, 2313, 2314, 2315, 2316, 2317, 2318, 2319, 2320, 2321, 2322, 2323, 2324, 2325, 2326
 2327, 2328, 2329, 2330, 2331, 2332, 2333, 2334, 2335, 2336, 2337, 2338, 2339, 2340, 2341, 2342
 2343, 2344, 2345, 2346, 2347, 2348, 2349, 2350, 2351, 2352, 2353, 2354, 2355, 2356, 2357, 2358
 2359, 2360, 2361, 2362, 2363, 2364, 2365, 2366, 2367, 2368, 2369, 2370, 2371, 2372, 2373, 2374
 2375, 2376, 2377, 2378, 2379, 2380, 2381, 2382, 2383, 2384, 2385, 2386, 2387, 2388
*Elset, elset=SET-1, generate
 433,  864,    1
*Nset, nset=SET-2
    1,    2,    3,    4,    5,    6,    7,    8,    9,   10,   11,   12,   13,   14,   15,   16
   71,   72,   73,   74,   75,   76,   77,   78,   79,   80,   81,   82,   83,   84,   85,   86
   87,   88,   89,   90,   91,   92,   93,   94,   95,   96,   97,   98,   99,  100,  101,  102
  103,  104,  105,  106,  107,  108,  109,  110,  111,  112,  113,  114,  115,  116,  117,  118
  119,  120,  121,  122,  123,  124,  125,  126,  127,  128,  129,  130,  131,  132,  133,  134
  135,  136,  137,  138,  139,  140,  141,  142,  143,  144,  145,  146,  147,  148,  149,  150
  151,  152,  153,  154,  155,  156,  157,  158,  159,  160,  161,  162,  163,  164,  165,  166
  167,  168,  169,  170,  171,  172,  173,  174,  175,  176,  177,  178,  179,  180,  181,  182
  183,  184,  185,  186,  187,  188,  189,  190,  191,  192,  193,  194,  195,  196,  197,  198
  199,  200,  201,  202,  203,  204,  205,  206,  207,  208,  209,  210,  211,  212,  213,  214
  215,  216,  217,  218,  219,  220,  221,  222,  223,  224,  225,  226,  227,  228,  229,  230
  231,  232,  233,  234,  235,  236,  237,  238,  239,  240,  241,  242,  243,  244,  245,  246
  247,  248,  249,  250,  251,  252,  253,  254,  255,  256,  257,  258,  259,  260,  261,  262
  263,  264,  265,  266,  267,  268,  269,  270,  271,  272,  273,  274,  275,  276,  277,  278
  279,  280,  281,  282,  283,  284,  285,  286,  287,  288,  289,  290,  291,  292,  293,  294
  295,  296,  297,  298,  299,  300,  301,  302,  303,  304,  305,  306,  307,  308,  309,  310
  311,  312,  313,  314,  315,  316,  317,  318,  319,  320,  321,  322,  323,  324,  325,  326
  327,  328,  329,  330,  331,  332,  333,  334,  335,  336,  337,  338,  339,  340,  341,  342
  343,  344,  345,  346,  347,  348,  349,  350,  351,  352,  353,  354,  355,  356,  357,  358
  359,  360,  361,  362,  363,  364,  365,  366,  367,  368,  369,  370,  371,  372,  373,  374
  375,  376,  377,  378,  379,  380,  381,  382,  383,  384,  385,  386,  387,  388,  389,  390
  391,  392,  393,  394,  395,  396,  397,  398,  399,  400,  401,  402,  403,  404,  405,  406
  407,  408, 1382, 1383, 1384, 1385, 1386, 1387, 1388, 1389, 1390, 1391, 1392, 1393, 1394, 1395
 1396, 1397, 1398, 1399, 1400, 1401, 1402, 1403, 1404, 1405, 1406, 1407, 1408, 1409, 1410, 1411
 1412, 1413, 1414, 1415, 1416, 1417, 1418, 1419, 1420, 1421, 1422, 1423, 1424, 1425, 1426, 1427
 1428, 1429, 1430, 1431, 1432, 1433, 1434, 1435, 1436, 1437, 1438, 1439, 1440, 1441, 1442, 1443
 1444, 1445, 1446, 1447, 1448, 1449, 1450, 1451, 1452, 1453, 1454, 1455, 1456, 1457, 1458, 1459
 1460, 1461, 1462, 1463, 1464, 1465, 1466, 1467, 1468, 1469, 1470, 1471, 1472, 1473, 1474, 1475
 1476, 1477, 1478, 1479, 1480, 1481, 1482, 1483, 1484, 1485, 1486, 1487, 1488, 1489, 1490, 1491
 1492, 1493, 1494, 1495, 1496, 1497, 1498, 1499, 1500, 1501, 1502, 1503, 1504, 1505, 1506, 1507
 1508, 1509, 1510, 1511, 1512, 1513, 1514, 1515, 1516, 1517, 1518, 1519, 1520, 1521, 1522, 1523
 1524, 1525, 1526, 1527, 1528, 1529, 1530, 1531, 1532, 1533, 1534, 1535, 1536, 1537, 1538, 1539
 1540, 1541, 1542, 1543, 1544, 1545, 1546, 1547, 1548, 1549, 1550, 1551, 1552, 1553, 1554, 1555
 1556, 1557, 1558, 1559, 1560, 1561, 1562, 1563, 1564, 1565, 1566, 1567, 1568, 1569, 1570, 1571
 1572, 1573, 1574, 1575, 1576, 1577, 1578, 1579, 1580, 1581, 1582, 1583, 1584, 1585, 1586, 1587
 1588, 1589, 1590, 1591, 1592, 1593, 1594, 1595, 1596, 1597, 1598, 1599, 1600, 1601, 1602, 1603
 1604, 1605, 1606, 1607, 1608, 1609, 1610, 1611, 1612, 1613, 1614, 1615, 1616, 1617, 1618, 1619
 1620, 1621, 1622, 1623, 1624, 1625, 1626, 1627, 1628, 1629, 1630, 1631, 1632, 1633, 1634, 1635
 1636, 1637, 1638, 1639, 1640, 1641, 1642, 1643, 1644, 1645, 1646, 1647, 1648, 1649, 1650, 1651
 1652, 1653, 1654, 1655, 1656, 1657, 1658, 1659, 1660, 1661, 1662, 1663, 1664, 1665, 1666, 1667
 1668, 1669, 1670, 1671, 1672, 1673, 1674, 1675, 1676, 1677, 1678, 1679, 1680, 1681, 1682, 1683
 1684, 1685, 1686, 1687, 1688, 1689, 1690, 1691, 1692, 1693, 1694, 1695, 1696, 1697, 1698, 1699
 1700, 1701, 1702, 1703, 1704, 1705, 1706, 1707, 1708, 1709, 1710, 1711, 1712, 1713, 1714, 1715
 1716, 1717, 1718, 1719, 1720, 1721, 1722, 1723, 1724, 1725, 1726, 1727, 1728, 1729, 1730, 1731
 1732, 1733, 1734, 1735, 1736, 1737, 1738, 1739, 1740, 1741, 1742, 1743, 1744, 1745, 1746, 1747
 1748, 1749, 1750, 1751, 1752, 1753, 1754, 1755, 1756, 1757, 1758, 1759, 1760, 1761, 1762, 1763
 1764, 1765, 1766, 1767, 1768, 1769, 1770, 1771, 1772, 1773, 1774, 1775, 1776, 1777, 1778, 1779
 1780, 1781, 1782, 1783, 1784, 1785, 1786, 1787, 1788, 1789, 1790, 1791, 1792, 1793, 1794, 1795
 1796, 1797, 1798, 1799, 1800, 1801, 1802, 1803, 1804, 1805, 1806, 1807, 1808, 1809, 1810, 1811
 1812, 1813, 1814, 1815, 1816, 1817, 1818, 1819, 1820, 1821, 1822, 1823, 1824, 1825, 1826, 1827
 1828, 1829, 1830, 1831, 1832, 1833, 1834, 1835, 1836, 1837, 1838, 1839, 1840, 1841, 1842, 1843
 1844, 1845, 1846, 1847, 1848, 1849, 1850, 1851, 1852, 1853, 1854, 1855, 1856, 1857, 1858, 1859
 1860, 1861, 1862, 1863, 1864, 1865, 1866, 1867, 1868, 1869, 1870, 1871, 1872, 1873, 1874, 1875
 1876, 1877, 1878, 1879, 1880, 1881, 1882, 1883, 1884, 1885, 1886, 1887, 1888, 1889, 1890, 1891
 1892, 1893, 1894, 1895, 1896, 1897, 1898, 1899, 1900, 1901, 1902, 1903, 1904, 1905, 1906, 1907
 1908, 1909, 1910, 1911, 1912, 1913, 1914, 1915, 1916, 1917, 1918, 1919, 1920, 1921, 1922, 1923
 1924, 1925, 1926, 1927, 1928, 1929, 1930, 1931, 1932, 1933, 1934, 1935, 1936, 1937, 1938, 1939
 1940, 1941, 1942, 1943, 1944, 1945, 1946, 1947, 1948, 1949, 1950, 1951, 1952, 1953, 1954, 1955
 1956, 1957, 1958, 1959, 1960, 1961, 1962, 1963, 1964, 1965, 1966, 1967, 1968, 1969, 1970, 1971
 1972, 1973, 1974, 1975, 1976, 1977, 1978, 1979, 1980, 1981, 1982, 1983, 1984, 1985, 1986, 1987
 1988, 1989, 1990, 1991, 1992, 1993, 1994, 1995, 1996, 1997, 1998, 1999, 2000, 2001, 2002, 2003
 2004, 2005, 2006, 2007, 2008, 2009, 2010, 2011, 2012, 2013, 2014, 2015, 2016, 2017
*Elset, elset=SET-2, generate
   1,  432,    1
*Nset, nset=SET-3
    1,    2,    3,    4,    9,   10,   14,   15,   17,   18,   19,   22,   25,   26,   27,   31
   32,   36,   60,   61,   62,   63,   64,   65,   66,   67,   68,   69,   70,   71,   72,   73
   74,   75,   76,   77,   78,   79,   80,   81,   82,   83,   84,   85,   86,   87,   88,   89
   90,   91,   92,   93,   94,   95,   96,   97,   98,   99,  100,  101,  102,  103,  104,  105
  106,  107,  108,  109,  110,  111,  112,  113,  114,  115,  116,  117,  118,  119,  120,  121
  122,  123,  124,  125,  126,  127,  128,  129,  130,  131,  132,  133,  134,  135,  136,  137
  138,  139,  140,  141,  142,  143,  144,  145,  146,  147,  148,  149,  150,  151,  152,  153
  154,  155,  156,  157,  158,  159,  160,  161,  162,  163,  164,  165,  166,  167,  168,  169
  170,  171,  172,  173,  174,  175,  176,  177,  178,  346,  404,  462,  520,  525,  526,  527
  528,  529,  530,  531,  532,  533,  534,  535,  536,  537,  538,  539,  540,  541,  542,  543
  544,  545,  546,  547,  548,  549,  550,  551,  552,  553,  554,  555,  556,  557,  558,  559
  560,  561,  562,  563,  564,  565,  566,  567,  568,  569,  570,  571,  572,  573,  574,  575
  576,  577,  578,  579,  580,  581,  582,  583,  584,  585,  586,  587,  588,  589,  590,  657
  658,  659,  660,  661,  662,  663,  664,  665,  666,  667,  668,  669,  670,  671,  672,  673
  674,  675,  676,  677,  678,  679,  680,  681,  682,  683,  684,  751,  752,  753,  754,  755
  756,  757,  758,  759,  760,  761,  762,  763,  764,  765,  766,  767,  768,  769,  770,  771
  772,  773,  774,  775,  776,  777,  778,  779,  780,  781,  782,  783,  784,  785,  786,  787
  788, 1228, 1229, 1230, 1231, 1232, 1233, 1234, 1235, 1236, 1237, 1238, 1239, 1240, 1241, 1242
 1243, 1244, 1245, 1246, 1247, 1248, 1249, 1250, 1251, 1252, 1253, 1254, 1255, 1256, 1257, 1258
 1259, 1260, 1261, 1262, 1263, 1264, 1265, 1266, 1267, 1268, 1269, 1270, 1271, 1272, 1273, 1274
 1275, 1276, 1277, 1278, 1279, 1280, 1281, 1282, 1283, 1284, 1285, 1286, 1287, 1288, 1289, 1290
 1291, 1292, 1293, 1294, 1295, 1296, 1297, 1298, 1299, 1300, 1301, 1302, 1303, 1304, 1305, 1306
 1307, 1308, 1309, 1310, 1311, 1312, 1313, 1314, 1315, 1316, 1317, 1318, 1319, 1320, 1321, 1322
 1323, 1324, 1325, 1326, 1327, 1328, 1329, 1330, 1331, 1332, 1333, 1334, 1335, 1336, 1337, 1338
 1339, 1340, 1341, 1342, 1343, 1344, 1345, 1346, 1347, 1348, 1349, 1350, 1351, 1352, 1353, 1354
 1355, 1356, 1357, 1358, 1359, 1360, 1361, 1362, 1363, 1364, 1365, 1366, 1367, 1368, 1369, 1370
 1371, 1372, 1373, 1374, 1375, 1376, 1377, 1378, 1379, 1380, 1381, 1382, 1383, 1384, 1385, 1386
 1387, 1388, 1389, 1390, 1391, 1392, 1393, 1394, 1395, 1396, 1397, 1398, 1399, 1400, 1401, 1402
 1403, 1404, 1405, 1406, 1407, 1408, 1409, 1410, 1411, 1412, 1413, 1414, 1415, 1416, 1417, 1418
 1419, 1420, 1421, 1422, 1423, 1424, 1425, 1426, 1427, 1428, 1429, 1430, 1431, 1432, 1433, 1434
 3175, 3176, 3177, 3178, 3179, 3180, 3181, 3182, 3183, 3184, 3185, 3186, 3187, 3188, 3189, 3190
 3191, 3192, 3193, 3194, 3195, 3196, 3197, 3198, 3199, 3200, 3201, 3202, 3203, 3204, 3205, 3206
 3207, 3208, 3209, 3210, 3211, 3212, 3213, 3214, 3215, 3216, 3217, 3218, 3219, 3220, 3221, 3222
 3223, 3224, 3225, 3226, 3227, 3228, 3229, 3230, 3231, 3232, 3233, 3234, 3235, 3236, 3237, 3238
 3239, 3240, 3241, 3242, 3243, 3244, 3245, 3246, 3247, 3248, 3249, 3250, 3251, 3252, 3253, 3254
 3255, 3256, 3257, 3258, 3259, 3260, 3261, 3262, 3263, 3264, 3265, 3266, 3267, 3268, 3269, 3270
 3271, 3272, 3273, 3274, 3275, 3276, 3277, 3278, 3279, 3280, 3281, 3282, 3283, 3284, 3285, 3286
 3287, 3288, 3289, 3290, 3291, 3292, 3293, 3294, 3295, 3296, 3297, 3298, 3299, 3300, 3301, 3302
 3303, 3304, 3305, 3306, 3307, 3308, 3309, 3310, 3311, 3312, 3313, 3314, 3315, 3316, 3317, 3318
 3319, 3320, 3321, 3322, 3323, 3324, 3325, 3326, 3327, 3328, 3329, 3330, 3331, 3332, 3333, 3334
 3335, 3336, 3337, 3338, 3339, 3340, 3341, 3342, 3343, 3344, 3345, 3346, 3347, 3348, 3349, 3350
 3351, 3352, 3353, 3354, 3355, 3356, 3357, 3358, 3359, 3360, 3361, 3362, 3363, 3364, 3365, 3366
 3367, 3368, 3369, 3370, 3371, 3372, 3373, 3374, 3375, 3376, 3377, 3378, 3379, 3380, 3381, 3382
 3383, 3384, 3385, 3386, 3387, 3388, 3389, 3390, 3391, 3392, 3393, 3394, 3395, 3396, 3397, 3398
 3399, 3400, 3401, 3402, 3403, 3404, 3405, 3406, 3407, 3408, 3409, 3410, 3411, 3412, 3413, 3414
 3415, 3416, 3417, 3418, 3419, 3420, 3421, 3422, 3423, 3424, 3425, 3426, 3427, 3428, 3429, 3430
 3431, 3432, 3433, 3434, 3435, 3436, 3437, 3438, 3439, 3440, 3441, 3442, 3443, 3444, 3445, 3446
 3447, 3448, 3449, 3450, 3451, 3452, 3453, 3454, 3455, 3456, 3457, 3458, 3459, 3460, 3461, 3462
 3463, 3464, 3465, 3466, 3467, 3468, 3469, 3470, 3471, 3472, 3473, 3474, 3475, 3476, 3477, 3478
 3479, 3480, 3481, 3482, 3483, 3484, 3485, 3486, 3487, 3488, 3489, 3490, 3491, 3492, 3493, 3494
 3495, 3496, 3497, 3498, 3499, 3500, 3501, 3502, 3503, 3504, 3505, 3506, 3507, 3508, 3509, 3510
 3511, 3512, 3513, 3514, 3515, 3516, 3517, 3518, 3519, 3520, 3521, 3522, 3523, 3524, 3525, 3526
 3527, 3528, 3529, 3530, 3531, 3532, 3533, 3534, 3535, 3536, 3537, 3538, 3539, 3540, 3541, 3542
 3543, 3544, 3545, 3546, 3871, 3872, 3873, 3874, 3875, 3876, 3877, 3878, 3879, 3880, 3881, 3882
 3883, 3884, 3885, 3886, 3887, 3888, 3889, 3890, 3891, 3892, 3893, 3894, 3895, 3896, 3897, 3898
 3899, 3900, 3901, 3902, 3903, 3904, 3905, 3906, 3907, 3908, 3909, 3910, 3911, 3912, 3913, 3914
 3915, 3916, 3917, 3918, 3919, 3920, 3921, 3922, 3923, 3924, 3925, 3926, 3927, 3928, 3929, 3930
 3931, 3932, 3933, 3934, 3935, 3936, 3937, 3938, 3939, 3940, 3941, 3942, 3943, 3944, 3945, 3946
 3947, 3948, 3949, 3950, 3951, 3952, 3953, 3954, 3955, 3956, 3957, 3958, 3959, 3960, 3961, 3962
 3963, 3964, 3965, 3966, 3967, 3968, 3969, 3970, 3971, 3972, 3973, 3974, 3975, 3976, 3977, 3978
 3979, 3980, 3981, 3982, 3983, 3984, 3985, 3986, 3987, 3988, 3989, 3990, 3991, 3992, 3993, 3994
 3995, 3996, 3997, 3998, 3999, 4000, 4001, 4002, 4003, 4004, 4005, 4006, 4007, 4008, 4009, 4010
 4011, 4012, 4013, 4014, 4015, 4016, 4017, 4018, 4019, 4020, 4021, 4022, 4023, 4024, 4025, 4026
 4027, 4028, 4029, 4030, 4031, 4032, 4033, 4034, 4035, 4036, 4037, 4038, 4039, 4040, 4041, 4042
 4043, 4044, 4045, 4046, 4047, 4048, 4049, 4050, 4051, 4052, 4053, 4054, 4055, 4056, 4057, 4058
 4059, 4060, 4061, 4062, 4063, 4064, 4065, 4066, 4067, 4068, 4069, 4070, 4071, 4072, 4073, 4074
 4075, 4076, 4077, 4078, 4079, 4080, 4081, 4082, 4083, 4084, 4085, 4086, 4087, 4088, 4089, 4090
 4091, 4092, 4093, 4094, 4095, 4096, 4097, 4098, 4099, 4100, 4101, 4102, 4103, 4104, 4105, 4106
 4107, 4108, 4109, 4110, 4111, 4112, 4113, 4114, 4115, 4116, 4117, 4118, 4119, 4120, 4121, 4122
 4123, 4124, 4125, 4126, 4127, 4128, 4129, 4130, 4131, 4132, 4133, 4134, 4135, 4136, 4137, 4138
 4139, 4140, 4141, 4142, 4143, 4144, 4145, 4146, 4147, 4148, 4149, 4150, 4151, 4152, 4153, 4154
 4155, 4156, 4157, 4158, 4159, 4160, 4161, 4162, 4163, 4164, 4165, 4166, 4167, 4168, 4169, 4170
 4171, 4172, 4173, 4174, 4175, 4176, 4177, 4178, 4179, 4180, 4181, 4182, 4183, 4184, 4185, 4186
 4187, 4188, 4189, 4190, 4191, 4192, 4193, 4194, 4195, 4196, 4197, 4198, 4199, 4200, 4201, 4202
 4203, 4204, 4205, 4206, 4207, 4208, 4209, 4210, 4211, 4212, 4213, 4214, 4215, 4216, 4217, 4218
 4219, 4220, 4221, 4222, 4223, 4224, 4225, 4226, 4227, 4228, 4229, 4230, 4231, 4232, 4233, 4234
 4235, 4236, 4237, 4238, 4239, 4240, 4241, 4242, 4243, 4244, 4245, 4246, 4247, 4248, 4249, 4250
 4251, 4252, 4253, 4254, 4255, 4256, 4257, 4258, 4259, 4260, 4261, 4262, 4263, 4264, 4265, 4266
 4267, 4268, 4269, 4270, 4271, 4272, 4273, 4274, 4275, 4276, 4277, 4278, 4279, 4280, 4281, 4282
 4283, 4284, 5773, 5774, 5775, 5776, 5777, 5778, 5779, 5780, 5781, 5782, 5783, 5784, 5785, 5786
 5787, 5788, 5789, 5790, 5791, 5792, 5793, 5794, 5795, 5796, 5797, 5798, 5799, 5800, 5801, 5802
 5803, 5804, 5805, 5806, 5807, 5808, 5809, 5810, 5811, 5812, 5813, 5814, 5815, 5816, 5817, 5818
 5819, 5820, 5821, 5822, 5823, 5824, 5825, 5826, 5827, 5828, 5829, 5830, 5831, 5832, 5833, 5834
 5835, 5836, 5837, 5838, 5839, 5840, 5841, 5842, 5843, 5844, 5845, 5846, 5847, 5848, 5849, 5850
 5851, 5852, 5853, 5854, 5855, 5856, 5857, 5858, 5859, 5860, 5861, 5862, 5863, 5864, 5865, 5866
 5867, 5868, 5869, 5870, 5871, 5872, 5873, 5874, 5875, 5876, 5877, 5878, 5879, 5880, 5881, 5882
 5883, 5884, 5885, 5886, 5887, 5888, 5889, 5890, 5891, 5892, 5893, 5894, 5895, 5896, 5897, 5898
 5899, 5900, 5901, 5902, 5903, 5904, 5905, 5906, 5907, 5908, 5909, 5910, 5911, 5912, 5913, 5914
 5915, 5916, 5917, 5918, 5919, 5920, 5921, 5922, 5923, 5924, 5925, 5926, 5927, 5928, 5929, 5930
 5931, 5932, 5933, 5934, 5935, 5936, 5937, 5938, 5939, 5940, 5941, 5942, 5943, 5944, 5945, 5946
 5947, 5948, 5949, 5950, 5951, 5952, 5953, 5954, 5955, 5956, 5957, 5958, 5959, 5960, 5961, 5962
 5963, 5964, 5965, 5966, 5967, 5968, 5969, 5970, 5971, 5972, 5973, 5974, 5975, 5976, 5977, 5978
 5979, 5980, 5981, 5982, 5983, 5984, 5985, 5986, 5987, 5988, 5989, 5990, 5991, 5992, 5993, 5994
 5995, 5996, 5997, 5998, 5999, 6000, 6001, 6002, 6003, 6004, 6005, 6006, 6007, 6008, 6009, 6010
 6011, 6012, 6013, 6014, 6015, 6016, 6017, 6018, 6019, 6020, 6021, 6022, 6023, 6024, 6025, 6026
 6027, 6028, 6029, 6030, 6031, 6032, 6033, 6034, 6035, 6036, 6037, 6038, 6039, 6040, 6041, 6042
 6043, 6044, 6045, 6046, 6047, 6048, 6049, 6050, 6051, 6052, 6053, 6054, 6055, 6056, 6057, 6058
 6059, 6060, 6061, 6062, 6063, 6064, 6065, 6066, 6067, 6068, 6069, 6070, 6071, 6072, 6073, 6074
 6075, 6076, 6077, 6078, 6079, 6080, 6081, 6082, 6083, 6084, 6085, 6086, 6087, 6088, 6089, 6090
 6091, 6092, 6093, 6094, 6095, 6096, 6097, 6098, 6099, 6100, 6101, 6102, 6103, 6104, 6105, 6106
 6107, 6108, 6109, 6110, 6111, 6112, 6113, 6114, 6115, 6116, 6117, 6118, 6119, 6120, 6121, 6122
 6123, 6124, 6125, 6126, 6127, 6128, 6129, 6130, 6131, 6132, 6133, 6134, 6135, 6136, 6137, 6138
 6139, 6140, 6141, 6142, 6143, 6144
*Elset, elset=SET-3, generate
 3749,  4664,     1
*Nset, nset=SET-4
    5,    6,    7,    8,   11,   12,   13,   16,   20,   21,   23,   24,   37,   38,   39,   43
   44,   48,   49,   50,   51,   52,   53,   54,   55,   56,   57,   58,   59,  182,  183,  184
  185,  186,  187,  188,  189,  190,  191,  192,  193,  194,  195,  196,  197,  198,  199,  200
  201,  202,  203,  204,  205,  206,  207,  208,  209,  210,  211,  212,  213,  214,  215,  216
  217,  218,  219,  220,  221,  222,  223,  224,  225,  226,  227,  228,  229,  230,  231,  232
  233,  234,  238,  239,  240,  241,  242,  243,  244,  245,  246,  247,  248,  249,  250,  251
  252,  253,  254,  255,  256,  257,  258,  259,  260,  261,  262,  263,  264,  265,  266,  267
  268,  269,  270,  271,  272,  273,  274,  275,  276,  277,  278,  279,  280,  281,  282,  283
  284,  285,  286,  287,  288,  289,  290,  291,  292,  350,  408,  466,  524,  789,  790,  791
  792,  793,  794,  795,  796,  797,  798,  799,  800,  801,  802,  803,  804,  805,  806,  807
  808,  809,  810,  811,  812,  813,  814,  815,  816,  817,  818,  819,  820,  821,  822,  823
  824,  825,  826,  827,  828,  829,  830,  831,  832,  833,  834,  835,  836,  837,  838,  839
  840,  841,  842,  843,  844,  845,  846,  847,  848,  849,  850,  851,  852,  853,  854,  921
  922,  923,  924,  925,  926,  927,  928,  929,  930,  931,  932,  933,  934,  935,  936,  937
  938,  939,  940,  941,  942,  943,  944,  945,  946,  947,  948, 1015, 1016, 1017, 1018, 1019
 1020, 1021, 1022, 1023, 1024, 1025, 1026, 1027, 1028, 1029, 1030, 1031, 1032, 1033, 1034, 1035
 1036, 1037, 1038, 1039, 1040, 1041, 1042, 1043, 1044, 1045, 1046, 1047, 1048, 1049, 1050, 1051
 1052, 1053, 1054, 1055, 1056, 1057, 1058, 1059, 1060, 1061, 1062, 1063, 1064, 1065, 1066, 1067
 1068, 1069, 1070, 1071, 1072, 1073, 1074, 1075, 1076, 1077, 1078, 1079, 1080, 1081, 1082, 1083
 1084, 1085, 1086, 1087, 1088, 1089, 1090, 1091, 1092, 1093, 1094, 1095, 1096, 1097, 1098, 1099
 1100, 1101, 1102, 1103, 1104, 1105, 1106, 1107, 1108, 1109, 1110, 1111, 1112, 1113, 1114, 1115
 1116, 1117, 1118, 1119, 1120, 1121, 1122, 1123, 1124, 1125, 1126, 1127, 1128, 1129, 1130, 1131
 1132, 1133, 1134, 1135, 1136, 1137, 1138, 1139, 1140, 1141, 1142, 1143, 1144, 1145, 1146, 1147
 1148, 1149, 1150, 1151, 1152, 1153, 1154, 1155, 1156, 1157, 1158, 1159, 1160, 1161, 1162, 1163
 1164, 1165, 1166, 1167, 1168, 1169, 1170, 1171, 1172, 1173, 1174, 1175, 1176, 1177, 1178, 1179
 1180, 1181, 1182, 1183, 1184, 1185, 1186, 1187, 1188, 1189, 1190, 1191, 1192, 1193, 1194, 1195
 1196, 1197, 1198, 1199, 1200, 1201, 1202, 1203, 1204, 1205, 1206, 1594, 1595, 1596, 1597, 1598
 1599, 1600, 1601, 1602, 1603, 1604, 1605, 1606, 1607, 1608, 1609, 1610, 1611, 1612, 1613, 1614
 1615, 1616, 1617, 1618, 1619, 1620, 1621, 1622, 1623, 1624, 1625, 1626, 1627, 1628, 1629, 1630
 1631, 1632, 1633, 1634, 1635, 1636, 1637, 1638, 1639, 1640, 1641, 1642, 1643, 1644, 1645, 1646
 2389, 2390, 2391, 2392, 2393, 2394, 2395, 2396, 2397, 2398, 2399, 2400, 2401, 2402, 2403, 2404
 2405, 2406, 2407, 2408, 2409, 2410, 2411, 2412, 2413, 2414, 2415, 2416, 2417, 2418, 2419, 2420
 2421, 2422, 2423, 2424, 2425, 2426, 2427, 2428, 2429, 2430, 2431, 2432, 2433, 2434, 2435, 2436
 2437, 2438, 2439, 2440, 2441, 2442, 2443, 2444, 2445, 2446, 2447, 2448, 2449, 2450, 2451, 2452
 2453, 2454, 2455, 2456, 2457, 2458, 2459, 2460, 2461, 2462, 2463, 2464, 2465, 2466, 2467, 2468
 2469, 2470, 2471, 2472, 2473, 2474, 2475, 2476, 2477, 2478, 2479, 2480, 2481, 2482, 2483, 2484
 2485, 2486, 2487, 2488, 2489, 2490, 2491, 2492, 2493, 2494, 2495, 2496, 2497, 2498, 2499, 2500
 2501, 2502, 2503, 2504, 2505, 2506, 2507, 2508, 2509, 2510, 2511, 2512, 2513, 2514, 2515, 2516
 2517, 2518, 2519, 2520, 2521, 2522, 2523, 2524, 2525, 2526, 2527, 2528, 2529, 2530, 2531, 2532
 2533, 2534, 2535, 2536, 2537, 2538, 2539, 2540, 2541, 2542, 2543, 2544, 2545, 2546, 2547, 2548
 2549, 2550, 2551, 2552, 2553, 2554, 2555, 2556, 2557, 2558, 2559, 2560, 2561, 2562, 2563, 2564
 2565, 2566, 2567, 2568, 2569, 2570, 2571, 2572, 2573, 2574, 2575, 2576, 2577, 2578, 2579, 2580
 2581, 2582, 2583, 2584, 2585, 2586, 2587, 2588, 2589, 2590, 2591, 2592, 2593, 2594, 2595, 2596
 2597, 2598, 2599, 2600, 2601, 2602, 2603, 2604, 2605, 2606, 2607, 2608, 2609, 2610, 2611, 2612
 2613, 2614, 2615, 2616, 2617, 2618, 2619, 2620, 2621, 2622, 2623, 2624, 2625, 2626, 2627, 2628
 2629, 2630, 2631, 2632, 2633, 2634, 2635, 2636, 2637, 2638, 2639, 2640, 2641, 2642, 2643, 2644
 2645, 2646, 2647, 2648, 2649, 2650, 2651, 2652, 2653, 2654, 2655, 2656, 2657, 2658, 2659, 2660
 2661, 2662, 2663, 2664, 2665, 2666, 2667, 2668, 2669, 2670, 2671, 2672, 2673, 2674, 2675, 2676
 2677, 2678, 2679, 2680, 2681, 2682, 2683, 2684, 2685, 2686, 2687, 2688, 2689, 2690, 2691, 2692
 2693, 2694, 2695, 2696, 2697, 2698, 2699, 2700, 2701, 2702, 2703, 2704, 2705, 2706, 2707, 2708
 2709, 2710, 2711, 2712, 2713, 2714, 2715, 2716, 2717, 2718, 2719, 2720, 2721, 2722, 2723, 2724
 2725, 2726, 2727, 2728, 2729, 2730, 2731, 2732, 2733, 2734, 2735, 2736, 2737, 2738, 2739, 2740
 2741, 2742, 2743, 2744, 2745, 2746, 2747, 2748, 2749, 2750, 2751, 2752, 2753, 2754, 2755, 2756
 2757, 2758, 2759, 2760, 2761, 2762, 2763, 2764, 2765, 2766, 2767, 2768, 2769, 2770, 2771, 2772
 2773, 2774, 2775, 2776, 2777, 2778, 2779, 2780, 2781, 2782, 2783, 2784, 2785, 2786, 2787, 2788
 2789, 2790, 2791, 2792, 2793, 2794, 2795, 2796, 2797, 2798, 2799, 2800, 2801, 2802, 2803, 2804
 2805, 2806, 2807, 2808, 2809, 2810, 2811, 2812, 2813, 2814, 2815, 2816, 2817, 2818, 2819, 2820
 2821, 2822, 2823, 2824, 2825, 2826, 2827, 2828, 2829, 2830, 2831, 2832, 2833, 2834, 2835, 2836
 2837, 2838, 2839, 2840, 2841, 2842, 2843, 2844, 2845, 2846, 2847, 2848, 2849, 2850, 2851, 2852
 2853, 2854, 2855, 2856, 2857, 2858, 2859, 2860, 2861, 2862, 2863, 2864, 2865, 2866, 2867, 2868
 2869, 2870, 2871, 2872, 2873, 2874, 2875, 2876, 2877, 2878, 2879, 2880, 2881, 2882, 2883, 2884
 2885, 2886, 2887, 2888, 2889, 2890, 2891, 2892, 2893, 2894, 2895, 2896, 2897, 2898, 2899, 2900
 2901, 2902, 2903, 2904, 2905, 2906, 2907, 2908, 2909, 2910, 2911, 2912, 2913, 2914, 2915, 2916
 2917, 2918, 2919, 2920, 2921, 2922, 2923, 2924, 2925, 2926, 2927, 2928, 2929, 2930, 2931, 2932
 2933, 2934, 2935, 2936, 2937, 2938, 2939, 2940, 2941, 2942, 2943, 2944, 2945, 2946, 2947, 2948
 2949, 2950, 2951, 2952, 2953, 2954, 2955, 2956, 2957, 2958, 2959, 2960, 2961, 2962, 2963, 2964
 2965, 2966, 2967, 2968, 2969, 2970, 2971, 2972, 2973, 2974, 2975, 2976, 2977, 2978, 2979, 2980
 2981, 2982, 2983, 2984, 2985, 2986, 2987, 2988, 2989, 2990, 2991, 2992, 2993, 2994, 2995, 2996
 2997, 2998, 2999, 3000, 3001, 3002, 3003, 3004, 3005, 3006, 3007, 3008, 3009, 3010, 3011, 3012
 3013, 3014, 3015, 3016, 3017, 3018, 3019, 3020, 3021, 3022, 3023, 3024, 3025, 3026, 3027, 3028
 3029, 3030, 3031, 3032, 3033, 3034, 3035, 3036, 3037, 3038, 3039, 3040, 3041, 3042, 3043, 3044
 3045, 3046, 3047, 3048, 3049, 3050, 3051, 3052, 3053, 3054, 3055, 3056, 3057, 3058, 3059, 3060
 3061, 3062, 3063, 3064, 3065, 3066, 3067, 3068, 3069, 3070, 3071, 3072, 3073, 3074, 3075, 3076
 3077, 3078, 3079, 3080, 3081, 3082, 3083, 3084, 3085, 3086, 3087, 3088, 3089, 3090, 3091, 3092
 3093, 3094, 3095, 3096, 3097, 3098, 3099, 3100, 3101, 3102, 3103, 3104, 3105, 3106, 3107, 3108
 3109, 3110, 3111, 3112, 3113, 3114, 3115, 3116, 3117, 3118, 3119, 3120, 3121, 3122, 3123, 3124
 3125, 3126, 3127, 3128, 3129, 3130, 3131, 3132, 3133, 3134, 3135, 3136, 3137, 3138, 3139, 3140
 3141, 3142, 3143, 3144, 3145, 3146, 3147, 3148, 3149, 3150, 3151, 3152, 3153, 3154, 3155, 3156
 3157, 3158, 3159, 3160, 3161, 3162, 3163, 3164, 3165, 3166, 3167, 3168, 3169, 3170, 3171, 3172
 3173, 3174, 4285, 4286, 4287, 4288, 4289, 4290, 4291, 4292, 4293, 4294, 4295, 4296, 4297, 4298
 4299, 4300, 4301, 4302, 4303, 4304, 4305, 4306, 4307, 4308, 4309, 4310, 4311, 4312, 4313, 4314
 4315, 4316, 4317, 4318, 4319, 4320, 4321, 4322, 4323, 4324, 4325, 4326, 4327, 4328, 4329, 4330
 4331, 4332, 4333, 4334, 4335, 4336, 4337, 4338, 4339, 4340, 4341, 4342, 4343, 4344, 4345, 4346
 4347, 4348, 4349, 4350, 4351, 4352, 4353, 4354, 4355, 4356, 4357, 4358, 4359, 4360, 4361, 4362
 4363, 4364, 4365, 4366, 4367, 4368, 4369, 4370, 4371, 4372, 4373, 4374, 4375, 4376, 4377, 4378
 4379, 4380, 4381, 4382, 4383, 4384, 4385, 4386, 4387, 4388, 4389, 4390, 4391, 4392, 4393, 4394
 4395, 4396, 4397, 4398, 4399, 4400, 4401, 4402, 4403, 4404, 4405, 4406, 4407, 4408, 4409, 4410
 4411, 4412, 4413, 4414, 4415, 4416, 4417, 4418, 4419, 4420, 4421, 4422, 4423, 4424, 4425, 4426
 4427, 4428, 4429, 4430, 4431, 4432, 4433, 4434, 4435, 4436, 4437, 4438, 4439, 4440, 4441, 4442
 4443, 4444, 4445, 4446, 4447, 4448, 4449, 4450, 4451, 4452, 4453, 4454, 4455, 4456, 4457, 4458
 4459, 4460, 4461, 4462, 4463, 4464, 4465, 4466, 4467, 4468, 4469, 4470, 4471, 4472, 4473, 4474
 4475, 4476, 4477, 4478, 4479, 4480, 4481, 4482, 4483, 4484, 4485, 4486, 4487, 4488, 4489, 4490
 4491, 4492, 4493, 4494, 4495, 4496, 4497, 4498, 4499, 4500, 4501, 4502, 4503, 4504, 4505, 4506
 4507, 4508, 4509, 4510, 4511, 4512, 4513, 4514, 4515, 4516, 4517, 4518, 4519, 4520, 4521, 4522
 4523, 4524, 4525, 4526, 4527, 4528, 4529, 4530, 4531, 4532, 4533, 4534, 4535, 4536, 4537, 4538
 4539, 4540, 4541, 4542, 4543, 4544, 4545, 4546, 4547, 4548, 4549, 4550, 4551, 4552, 4553, 4554
 4555, 4556, 4557, 4558, 4559, 4560, 4561, 4562, 4563, 4564, 4565, 4566, 4567, 4568, 4569, 4570
 4571, 4572, 4573, 4574, 4575, 4576, 4577, 4578, 4579, 4580, 4581, 4582, 4583, 4584, 4585, 4586
 4587, 4588, 4589, 4590, 4591, 4592, 4593, 4594, 4595, 4596, 4597, 4598, 4599, 4600, 4601, 4602
 4603, 4604, 4605, 4606, 4607, 4608, 4609, 4610, 4611, 4612, 4613, 4614, 4615, 4616, 4617, 4618
 4619, 4620, 4621, 4622, 4623, 4624, 4625, 4626, 4627, 4628, 4629, 4630, 4631, 4632, 4633, 4634
 4635, 4636, 4637, 4638, 4639, 4640, 4641, 4642, 4643, 4644, 4645, 4646, 4647, 4648, 4649, 4650
 4651, 4652, 4653, 4654, 4655, 4656
*Elset, elset=SET-4, generate
 1001,  1916,     1
*Nset, nset=SET-5
    3,    4,    5,    6,   10,   11,   15,   16,   19,   20,   22,   23,   49,   50,   51,   52
   53,   54,   55,   60,   61,   62,   63,   64,   65,   66,  125,  126,  127,  128,  129,  130
  131,  132,  133,  134,  135,  136,  137,  138,  139,  140,  141,  142,  143,  144,  145,  146
  147,  148,  149,  150,  151,  152,  153,  154,  155,  156,  157,  158,  159,  160,  161,  162
  163,  164,  165,  166,  167,  168,  169,  170,  171,  172,  173,  174,  175,  176,  177,  179
  180,  181,  182,  183,  184,  185,  186,  187,  188,  189,  190,  191,  192,  193,  194,  195
  196,  197,  198,  199,  200,  201,  202,  203,  204,  205,  206,  207,  208,  209,  210,  211
  212,  213,  214,  215,  216,  217,  218,  219,  220,  221,  222,  223,  224,  225,  226,  227
  228,  229,  230,  231,  232,  233,  234,  235,  236,  237,  347,  348,  349,  405,  406,  407
  463,  464,  465,  521,  522,  523, 1053, 1054, 1055, 1056, 1057, 1058, 1059, 1060, 1061, 1062
 1063, 1064, 1065, 1066, 1067, 1068, 1069, 1070, 1071, 1072, 1073, 1074, 1075, 1076, 1077, 1078
 1079, 1080, 1081, 1082, 1083, 1084, 1085, 1086, 1087, 1088, 1089, 1090, 1091, 1092, 1093, 1094
 1095, 1096, 1097, 1098, 1099, 1100, 1101, 1102, 1103, 1104, 1105, 1106, 1107, 1108, 1109, 1110
 1111, 1112, 1113, 1114, 1115, 1116, 1117, 1118, 1119, 1120, 1121, 1122, 1123, 1124, 1125, 1126
 1127, 1128, 1129, 1130, 1131, 1132, 1133, 1134, 1135, 1136, 1137, 1138, 1139, 1140, 1141, 1142
 1143, 1144, 1145, 1146, 1147, 1148, 1149, 1150, 1151, 1152, 1153, 1154, 1155, 1156, 1157, 1158
 1159, 1160, 1207, 1208, 1209, 1210, 1211, 1212, 1213, 1214, 1215, 1216, 1217, 1218, 1219, 1220
 1221, 1222, 1223, 1224, 1225, 1226, 1227, 1228, 1229, 1230, 1231, 1232, 1233, 1234, 1235, 1236
 1237, 1238, 1239, 1240, 1241, 1242, 1243, 1244, 1245, 1246, 1247, 1248, 1249, 1250, 1251, 1252
 1253, 1254, 1255, 1256, 1257, 1258, 1259, 1260, 1261, 1262, 1263, 1264, 1265, 1266, 1267, 1268
 1269, 1270, 1271, 1272, 1273, 1274, 1275, 1276, 1277, 1278, 1279, 1280, 1281, 1282, 1283, 1284
 1285, 1286, 1287, 1288, 1289, 1290, 1291, 1292, 1293, 1294, 1295, 1296, 1297, 1298, 1299, 1300
 1301, 1302, 1303, 1304, 1305, 1306, 1307, 1308, 1309, 1310, 1311, 1312, 1313, 1314, 1315, 1316
 1317, 1318, 1319, 1320, 1321, 1322, 1323, 1324, 1325, 1326, 1327, 1328, 1329, 1330, 1331, 1332
 1333, 1334, 1335, 1435, 1436, 1437, 1438, 1439, 1440, 1441, 1442, 1443, 1444, 1445, 1446, 1447
 1448, 1449, 1450, 1451, 1452, 1453, 1454, 1455, 1456, 1457, 1458, 1459, 1460, 1461, 1462, 1463
 1464, 1465, 1466, 1467, 1468, 1469, 1470, 1471, 1472, 1473, 1474, 1475, 1476, 1477, 1478, 1479
 1480, 1481, 1482, 1483, 1484, 1485, 1486, 1487, 1488, 1489, 1490, 1491, 1492, 1493, 1494, 1495
 1496, 1497, 1498, 1499, 1500, 1501, 1502, 1503, 1504, 1505, 1506, 1507, 1508, 1509, 1510, 1511
 1512, 1513, 1514, 1515, 1516, 1517, 1518, 1519, 1520, 1521, 1522, 1523, 1524, 1525, 1526, 1527
 1528, 1529, 1530, 1531, 1532, 1533, 1534, 1535, 1536, 1537, 1538, 1539, 1540, 1541, 1542, 1543
 1544, 1545, 1546, 1547, 1548, 1549, 1550, 1551, 1552, 1553, 1554, 1555, 1556, 1557, 1558, 1559
 1560, 1561, 1562, 1563, 1564, 1565, 1566, 1567, 1568, 1569, 1570, 1571, 1572, 1573, 1574, 1575
 1576, 1577, 1578, 1579, 1580, 1581, 1582, 1583, 1584, 1585, 1586, 1587, 1588, 1589, 1590, 1591
 1592, 1593, 2389, 2390, 2391, 2392, 2393, 2394, 2395, 2396, 2397, 2398, 2399, 2400, 2401, 2402
 2403, 2404, 2405, 2406, 2407, 2408, 2409, 2410, 2411, 2412, 2413, 2414, 2415, 2416, 2417, 2418
 2419, 2420, 2421, 2422, 2423, 2424, 2425, 2426, 2427, 2428, 2429, 2430, 2431, 2432, 2433, 2434
 2435, 2436, 2437, 2438, 2439, 2440, 2441, 2442, 2443, 2444, 2445, 2446, 2447, 2448, 2449, 2450
 2451, 2452, 2453, 2454, 2455, 2456, 2457, 2458, 2459, 2460, 2461, 2462, 2463, 2464, 2465, 2466
 2467, 2468, 2469, 2470, 2471, 2472, 2473, 2474, 2475, 2476, 2477, 2478, 2479, 2480, 2481, 2482
 2483, 2484, 2485, 2486, 2487, 2488, 2489, 2490, 2491, 2492, 2493, 2494, 2495, 2496, 2497, 2498
 2499, 2500, 2501, 2502, 2503, 2504, 2505, 2506, 2507, 2508, 2509, 2510, 2511, 2512, 2513, 2514
 2515, 2516, 2517, 2518, 2519, 2520, 2521, 2522, 2523, 2524, 2525, 2526, 2527, 2528, 2529, 2530
 2531, 2532, 2533, 2534, 2535, 2536, 2537, 2538, 2539, 2540, 2541, 2542, 2543, 2544, 2545, 2546
 2547, 2548, 2549, 2550, 2551, 2552, 2553, 2554, 2555, 2556, 2557, 2558, 2559, 2560, 2561, 2562
 2563, 2564, 2565, 2566, 2567, 2568, 2569, 2570, 2571, 2572, 2573, 2574, 2575, 2576, 2577, 2578
 2579, 2580, 2581, 2582, 2583, 2584, 2585, 2586, 2587, 2588, 2589, 2590, 2591, 2592, 2593, 2594
 2595, 2596, 2597, 2598, 2599, 2600, 2601, 2602, 2603, 2604, 2605, 2606, 2607, 2608, 2609, 2610
 2611, 2612, 2613, 2614, 2615, 2616, 2617, 2618, 2619, 2620, 2621, 2622, 2623, 2624, 2625, 2626
 2627, 2628, 2629, 2630, 2631, 2632, 2633, 2634, 2635, 2636, 2637, 2638, 2639, 2640, 2641, 2642
 2643, 2644, 2645, 2646, 2647, 2648, 2649, 2650, 2651, 2652, 2653, 2654, 2655, 2656, 2657, 2658
 2659, 2660, 2661, 2662, 2663, 2664, 2665, 2666, 2667, 2668, 2669, 2670, 2671, 2672, 2673, 2674
 2675, 2676, 2677, 2678, 2679, 2680, 2681, 2682, 2683, 2684, 2685, 2686, 2687, 2688, 2689, 2690
 2691, 2692, 2693, 2694, 2695, 2696, 2697, 2698, 2699, 2700, 2701, 2702, 2703, 2704, 2705, 2706
 2707, 2708, 2709, 2710, 2711, 2712, 2713, 2714, 2715, 2716, 2717, 2718, 2719, 2720, 2721, 2722
 2723, 2724, 2725, 2726, 2727, 2728, 2729, 2730, 2731, 2732, 2733, 2734, 2735, 2736, 2737, 2738
 2739, 2740, 2741, 2742, 2743, 2744, 2745, 2746, 2747, 2748, 2749, 2750, 2751, 2752, 2753, 2754
 2755, 2756, 2757, 2758, 2759, 2760, 3175, 3176, 3177, 3178, 3179, 3180, 3181, 3182, 3183, 3184
 3185, 3186, 3187, 3188, 3189, 3190, 3191, 3192, 3193, 3194, 3195, 3196, 3197, 3198, 3199, 3200
 3201, 3202, 3203, 3204, 3205, 3206, 3207, 3208, 3209, 3210, 3211, 3212, 3213, 3214, 3215, 3216
 3217, 3218, 3219, 3220, 3221, 3222, 3223, 3224, 3225, 3226, 3227, 3228, 3229, 3230, 3231, 3232
 3233, 3234, 3235, 3236, 3237, 3238, 3239, 3240, 3241, 3242, 3243, 3244, 3245, 3246, 3247, 3248
 3249, 3250, 3251, 3252, 3253, 3254, 3255, 3256, 3257, 3258, 3259, 3260, 3261, 3262, 3263, 3264
 3265, 3266, 3267, 3268, 3269, 3270, 3271, 3272, 3273, 3274, 3275, 3276, 3277, 3278, 3279, 3280
 3281, 3282, 3283, 3284, 3285, 3286, 3287, 3288, 3289, 3290, 3291, 3292, 3293, 3294, 3295, 3296
 3297, 3298, 3299, 3300, 3301, 3302, 3303, 3304, 3305, 3306, 3307, 3308, 3309, 3310, 3311, 3312
 3313, 3314, 3315, 3316, 3317, 3318, 3319, 3320, 3321, 3322, 3323, 3324, 3325, 3326, 3327, 3328
 3329, 3330, 3331, 3332, 3333, 3334, 3335, 3336, 3337, 3338, 3339, 3340, 3341, 3342, 3343, 3344
 3345, 3346, 3347, 3348, 3349, 3350, 3351, 3352, 3353, 3354, 3355, 3356, 3357, 3358, 3359, 3360
 3361, 3362, 3363, 3364, 3365, 3366, 3367, 3368, 3369, 3370, 3371, 3372, 3373, 3374, 3375, 3376
 3377, 3378, 3379, 3380, 3381, 3382, 3383, 3384, 3385, 3386, 3387, 3388, 3389, 3390, 3391, 3392
 3393, 3394, 3395, 3396, 3397, 3398, 3399, 3400, 3401, 3402, 3403, 3404, 3405, 3406, 3407, 3408
 3409, 3410, 3411, 3412, 3413, 3414, 3415, 3416, 3417, 3418, 3419, 3420, 3421, 3422, 3423, 3424
 3425, 3426, 3427, 3428, 3429, 3430, 3431, 3432, 3433, 3434, 3435, 3436, 3437, 3438, 3439, 3440
 3441, 3442, 3443, 3444, 3445, 3446, 3447, 3448, 3449, 3450, 3451, 3452, 3453, 3454, 3455, 3456
 3457, 3458, 3459, 3460, 3461, 3462, 3463, 3464, 3465, 3466, 3467, 3468, 3469, 3470, 3471, 3472
 3473, 3474, 3475, 3476, 3477, 3478, 3479, 3480, 3481, 3482, 3483, 3484, 3485, 3486, 3487, 3488
 3489, 3490, 3491, 3492, 3493, 3494, 3495, 3496, 3497, 3498, 3499, 3500, 3501, 3502, 3503, 3504
 3505, 3506, 3507, 3508, 3509, 3510, 3511, 3512, 3513, 3514, 3515, 3516, 3517, 3518, 3519, 3520
 3521, 3522, 3523, 3524, 3525, 3526, 3527, 3528, 3529, 3530, 3531, 3532, 3533, 3534, 3535, 3536
 3537, 3538, 3539, 3540, 3541, 3542, 3543, 3544, 3545, 3546, 3547, 3548, 3549, 3550, 3551, 3552
 3553, 3554, 3555, 3556, 3557, 3558, 3559, 3560, 3561, 3562, 3563, 3564, 3565, 3566, 3567, 3568
 3569, 3570, 3571, 3572, 3573, 3574, 3575, 3576, 3577, 3578, 3579, 3580, 3581, 3582, 3583, 3584
 3585, 3586, 3587, 3588, 3589, 3590, 3591, 3592, 3593, 3594, 3595, 3596, 3597, 3598, 3599, 3600
 3601, 3602, 3603, 3604, 3605, 3606, 3607, 3608, 3609, 3610, 3611, 3612, 3613, 3614, 3615, 3616
 3617, 3618, 3619, 3620, 3621, 3622, 3623, 3624, 3625, 3626, 3627, 3628, 3629, 3630, 3631, 3632
 3633, 3634, 3635, 3636, 3637, 3638, 3639, 3640, 3641, 3642, 3643, 3644, 3645, 3646, 3647, 3648
 3649, 3650, 3651, 3652, 3653, 3654, 3655, 3656, 3657, 3658, 3659, 3660, 3661, 3662, 3663, 3664
 3665, 3666, 3667, 3668, 3669, 3670, 3671, 3672, 3673, 3674, 3675, 3676, 3677, 3678, 3679, 3680
 3681, 3682, 3683, 3684, 3685, 3686, 3687, 3688, 3689, 3690, 3691, 3692, 3693, 3694, 3695, 3696
 3697, 3698, 3699, 3700, 3701, 3702, 3703, 3704, 3705, 3706, 3707, 3708, 3709, 3710, 3711, 3712
 3713, 3714, 3715, 3716, 3717, 3718, 3719, 3720, 3721, 3722, 3723, 3724, 3725, 3726, 3727, 3728
 3729, 3730, 3731, 3732, 3733, 3734, 3735, 3736, 3737, 3738, 3739, 3740, 3741, 3742, 3743, 3744
 3745, 3746, 3747, 3748, 3749, 3750, 3751, 3752, 3753, 3754, 3755, 3756, 3757, 3758, 3759, 3760
 3761, 3762, 3763, 3764, 3765, 3766, 3767, 3768, 3769, 3770, 3771, 3772, 3773, 3774, 3775, 3776
 3777, 3778, 3779, 3780, 3781, 3782, 3783, 3784, 3785, 3786, 3787, 3788, 3789, 3790, 3791, 3792
 3793, 3794, 3795, 3796, 3797, 3798, 3799, 3800, 3801, 3802, 3803, 3804, 3805, 3806, 3807, 3808
 3809, 3810, 3811, 3812, 3813, 3814, 3815, 3816, 3817, 3818, 3819, 3820, 3821, 3822, 3823, 3824
 3825, 3826, 3827, 3828, 3829, 3830, 3831, 3832, 3833, 3834, 3835, 3836, 3837, 3838, 3839, 3840
 3841, 3842, 3843, 3844, 3845, 3846, 3847, 3848, 3849, 3850, 3851, 3852, 3853, 3854, 3855, 3856
 3857, 3858, 3859, 3860, 3861, 3862, 3863, 3864, 3865, 3866, 3867, 3868, 3869, 3870, 4657, 4658
 4659, 4660, 4661, 4662, 4663, 4664, 4665, 4666, 4667, 4668, 4669, 4670, 4671, 4672, 4673, 4674
 4675, 4676, 4677, 4678, 4679, 4680, 4681, 4682, 4683, 4684, 4685, 4686, 4687, 4688, 4689, 4690
 4691, 4692, 4693, 4694, 4695, 4696, 4697, 4698, 4699, 4700, 4701, 4702, 4703, 4704, 4705, 4706
 4707, 4708, 4709, 4710, 4711, 4712, 4713, 4714, 4715, 4716, 4717, 4718, 4719, 4720, 4721, 4722
 4723, 4724, 4725, 4726, 4727, 4728, 4729, 4730, 4731, 4732, 4733, 4734, 4735, 4736, 4737, 4738
 4739, 4740, 4741, 4742, 4743, 4744, 4745, 4746, 4747, 4748, 4749, 4750, 4751, 4752, 4753, 4754
 4755, 4756, 4757, 4758, 4759, 4760, 4761, 4762, 4763, 4764, 4765, 4766, 4767, 4768, 4769, 4770
 4771, 4772, 4773, 4774, 4775, 4776, 4777, 4778, 4779, 4780, 4781, 4782, 4783, 4784, 4785, 4786
 4787, 4788, 4789, 4790, 4791, 4792, 4793, 4794, 4795, 4796, 4797, 4798, 4799, 4800, 4801, 4802
 4803, 4804, 4805, 4806, 4807, 4808, 4809, 4810, 4811, 4812, 4813, 4814, 4815, 4816, 4817, 4818
 4819, 4820, 4821, 4822, 4823, 4824, 4825, 4826, 4827, 4828, 4829, 4830, 4831, 4832, 4833, 4834
 4835, 4836, 4837, 4838, 4839, 4840, 4841, 4842, 4843, 4844, 4845, 4846, 4847, 4848, 4849, 4850
 4851, 4852, 4853, 4854, 4855, 4856, 4857, 4858, 4859, 4860, 4861, 4862, 4863, 4864, 4865, 4866
 4867, 4868, 4869, 4870, 4871, 4872, 4873, 4874, 4875, 4876, 4877, 4878, 4879, 4880, 4881, 4882
 4883, 4884, 4885, 4886, 4887, 4888, 4889, 4890, 4891, 4892, 4893, 4894, 4895, 4896, 4897, 4898
 4899, 4900, 4901, 4902, 4903, 4904, 4905, 4906, 4907, 4908, 4909, 4910, 4911, 4912, 4913, 4914
 4915, 4916, 4917, 4918, 4919, 4920, 4921, 4922, 4923, 4924, 4925, 4926, 4927, 4928, 4929, 4930
 4931, 4932, 4933, 4934, 4935, 4936, 4937, 4938, 4939, 4940, 4941, 4942, 4943, 4944, 4945, 4946
 4947, 4948, 4949, 4950, 4951, 4952, 4953, 4954, 4955, 4956, 4957, 4958, 4959, 4960, 4961, 4962
 4963, 4964, 4965, 4966, 4967, 4968, 4969, 4970, 4971, 4972, 4973, 4974, 4975, 4976, 4977, 4978
 4979, 4980, 4981, 4982, 4983, 4984, 4985, 4986, 4987, 4988, 4989, 4990, 4991, 4992, 4993, 4994
 4995, 4996, 4997, 4998, 4999, 5000, 5001, 5002, 5003, 5004, 5005, 5006, 5007, 5008, 5009, 5010
 5011, 5012, 5013, 5014, 5015, 5016, 5017, 5018, 5019, 5020, 5021, 5022, 5023, 5024, 5025, 5026
 5027, 5028, 5029, 5030, 5031, 5032, 5033, 5034, 5035, 5036, 5037, 5038, 5039, 5040, 5041, 5042
 5043, 5044, 5045, 5046, 5047, 5048, 5049, 5050, 5051, 5052, 5053, 5054, 5055, 5056, 5057, 5058
 5059, 5060, 5061, 5062, 5063, 5064, 5065, 5066, 5067, 5068, 5069, 5070, 5071, 5072, 5073, 5074
 5075, 5076, 5077, 5078, 5079, 5080, 5081, 5082, 5083, 5084, 5085, 5086, 5087, 5088, 5089, 5090
 5091, 5092, 5093, 5094, 5095, 5096, 5097, 5098, 5099, 5100, 5101, 5102, 5103, 5104, 5105, 5106
 5107, 5108, 5109, 5110, 5111, 5112, 5113, 5114, 5115, 5116, 5117, 5118, 5119, 5120, 5121, 5122
 5123, 5124, 5125, 5126, 5127, 5128, 5129, 5130, 5131, 5132, 5133, 5134, 5135, 5136, 5137, 5138
 5139, 5140, 5141, 5142, 5143, 5144, 5145, 5146, 5147, 5148, 5149, 5150, 5151, 5152, 5153, 5154
 5155, 5156, 5157, 5158, 5159, 5160, 5161, 5162, 5163, 5164, 5165, 5166, 5167, 5168, 5169, 5170
 5171, 5172, 5173, 5174, 5175, 5176, 5177, 5178, 5179, 5180, 5181, 5182, 5183, 5184, 5185, 5186
 5187, 5188, 5189, 5190, 5191, 5192, 5193, 5194, 5195, 5196, 5197, 5198, 5199, 5200, 5201, 5202
 5203, 5204, 5205, 5206, 5207, 5208, 5209, 5210, 5211, 5212, 5213, 5214, 5215, 5216, 5217, 5218
 5219, 5220, 5221, 5222, 5223, 5224, 5225, 5226, 5227, 5228, 5229, 5230, 5231, 5232, 5233, 5234
 5235, 5236, 5237, 5238, 5239, 5240, 5241, 5242, 5243, 5244, 5245, 5246, 5247, 5248, 5249, 5250
 5251, 5252, 5253, 5254, 5255, 5256, 5257, 5258, 5259, 5260, 5261, 5262, 5263, 5264, 5265, 5266
 5267, 5268, 5269, 5270, 5271, 5272, 5273, 5274, 5275, 5276, 5277, 5278, 5279, 5280, 5281, 5282
 5283, 5284, 5285, 5286, 5287, 5288, 5289, 5290, 5291, 5292, 5293, 5294, 5295, 5296, 5297, 5298
 5299, 5300, 5301, 5302, 5303, 5304, 5305, 5306, 5307, 5308, 5309, 5310, 5311, 5312, 5313, 5314
 5315, 5316, 5317, 5318, 5319, 5320, 5321, 5322, 5323, 5324, 5325, 5326, 5327, 5328, 5329, 5330
 5331, 5332, 5333, 5334, 5335, 5336, 5337, 5338, 5339, 5340, 5341, 5342, 5343, 5344, 5345, 5346
 5347, 5348, 5349, 5350, 5351, 5352, 5353, 5354, 5355, 5356, 5357, 5358, 5359, 5360, 5361, 5362
 5363, 5364, 5365, 5366, 5367, 5368, 5369, 5370, 5371, 5372, 5373, 5374, 5375, 5376, 5377, 5378
 5379, 5380, 5381, 5382, 5383, 5384, 5385, 5386, 5387, 5388, 5389, 5390, 5391, 5392, 5393, 5394
 5395, 5396, 5397, 5398, 5399, 5400, 5401, 5402, 5403, 5404, 5405, 5406, 5407, 5408, 5409, 5410
 5411, 5412, 5413, 5414, 5415, 5416, 5417, 5418, 5419, 5420, 5421, 5422, 5423, 5424, 5425, 5426
 5427, 5428, 5429, 5430, 5431, 5432, 5433, 5434, 5435, 5436, 5437, 5438, 5439, 5440, 5441, 5442
 5443, 5444, 5445, 5446, 5447, 5448, 5449, 5450, 5451, 5452, 5453, 5454, 5455, 5456, 5457, 5458
 5459, 5460, 5461, 5462, 5463, 5464, 5465, 5466, 5467, 5468, 5469, 5470, 5471, 5472, 5473, 5474
 5475, 5476, 5477, 5478, 5479, 5480, 5481, 5482, 5483, 5484, 5485, 5486, 5487, 5488, 5489, 5490
 5491, 5492, 5493, 5494, 5495, 5496, 5497, 5498, 5499, 5500, 5501, 5502, 5503, 5504, 5505, 5506
 5507, 5508, 5509, 5510, 5511, 5512, 5513, 5514, 5515, 5516, 5517, 5518, 5519, 5520, 5521, 5522
 5523, 5524, 5525, 5526, 5527, 5528, 5529, 5530, 5531, 5532, 5533, 5534, 5535, 5536, 5537, 5538
 5539, 5540, 5541, 5542, 5543, 5544, 5545, 5546, 5547, 5548, 5549, 5550, 5551, 5552, 5553, 5554
 5555, 5556, 5557, 5558, 5559, 5560, 5561, 5562, 5563, 5564, 5565, 5566, 5567, 5568, 5569, 5570
 5571, 5572, 5573, 5574, 5575, 5576, 5577, 5578, 5579, 5580, 5581, 5582, 5583, 5584, 5585, 5586
 5587, 5588, 5589, 5590, 5591, 5592, 5593, 5594, 5595, 5596, 5597, 5598, 5599, 5600, 5601, 5602
 5603, 5604, 5605, 5606, 5607, 5608, 5609, 5610, 5611, 5612, 5613, 5614, 5615, 5616, 5617, 5618
 5619, 5620, 5621, 5622, 5623, 5624, 5625, 5626, 5627, 5628, 5629, 5630, 5631, 5632, 5633, 5634
 5635, 5636, 5637, 5638, 5639, 5640, 5641, 5642, 5643, 5644, 5645, 5646, 5647, 5648, 5649, 5650
 5651, 5652, 5653, 5654, 5655, 5656, 5657, 5658, 5659, 5660, 5661, 5662, 5663, 5664, 5665, 5666
 5667, 5668, 5669, 5670, 5671, 5672, 5673, 5674, 5675, 5676, 5677, 5678, 5679, 5680, 5681, 5682
 5683, 5684, 5685, 5686, 5687, 5688, 5689, 5690, 5691, 5692, 5693, 5694, 5695, 5696, 5697, 5698
 5699, 5700, 5701, 5702, 5703, 5704, 5705, 5706, 5707, 5708, 5709, 5710, 5711, 5712, 5713, 5714
 5715, 5716, 5717, 5718, 5719, 5720, 5721, 5722, 5723, 5724, 5725, 5726, 5727, 5728, 5729, 5730
 5731, 5732, 5733, 5734, 5735, 5736, 5737, 5738, 5739, 5740, 5741, 5742, 5743, 5744, 5745, 5746
 5747, 5748, 5749, 5750, 5751, 5752, 5753, 5754, 5755, 5756, 5757, 5758, 5759, 5760, 5761, 5762
 5763, 5764, 5765, 5766, 5767, 5768, 5769, 5770, 5771, 5772
*Elset, elset=SET-5, generate
 1917,  3748,     1
*Nset, nset=SET-6
  25,  26,  27,  28,  29,  30,  31,  32,  33,  34,  35,  36, 525, 526, 527, 528
 529, 530, 531, 532, 533, 534, 535, 536, 537, 538, 539, 540, 541, 542, 543, 544
 545, 546, 547, 548, 549, 550, 551, 552, 553, 554, 555, 556, 557, 558, 559, 560
 561, 562, 563, 564, 565, 566, 567, 568, 569, 570, 571, 572, 573, 574, 575, 576
 577, 578, 579, 580, 581, 582, 583, 584, 585, 586, 587, 588, 589, 590, 591, 592
 593, 594, 595, 596, 597, 598, 599, 600, 601, 602, 603, 604, 605, 606, 607, 608
 609, 610, 611, 612, 613, 614, 615, 616, 617, 618, 619, 620, 621, 622, 623, 624
 625, 626, 627, 628, 629, 630, 631, 632, 633, 634, 635, 636, 637, 638, 639, 640
 641, 642, 643, 644, 645, 646, 647, 648, 649, 650, 651, 652, 653, 654, 655, 656
 657, 658, 659, 660, 661, 662, 663, 664, 665, 666, 667, 668, 669, 670, 671, 672
 673, 674, 675, 676, 677, 678, 679, 680, 681, 682, 683, 684, 685, 686, 687, 688
 689, 690, 691, 692, 693, 694, 695, 696, 697, 698, 699, 700, 701, 702, 703, 704
 705, 706, 707, 708, 709, 710, 711, 712, 713, 714, 715, 716, 717, 718, 719, 720
 721, 722, 723, 724, 725, 726, 727, 728, 729, 730, 731, 732, 733, 734, 735, 736
 737, 738, 739, 740, 741, 742, 743, 744, 745, 746, 747, 748, 749, 750, 751, 752
 753, 754, 755, 756, 757, 758, 759, 760, 761, 762, 763, 764, 765, 766, 767, 768
 769, 770, 771, 772, 773, 774, 775, 776, 777, 778, 779, 780, 781, 782, 783, 784
 785, 786, 787, 788
*Elset, elset=SET-6, generate
 865,  932,    1
*Nset, nset=SET-7
   37,   38,   39,   40,   41,   42,   43,   44,   45,   46,   47,   48,  789,  790,  791,  792
  793,  794,  795,  796,  797,  798,  799,  800,  801,  802,  803,  804,  805,  806,  807,  808
  809,  810,  811,  812,  813,  814,  815,  816,  817,  818,  819,  820,  821,  822,  823,  824
  825,  826,  827,  828,  829,  830,  831,  832,  833,  834,  835,  836,  837,  838,  839,  840
  841,  842,  843,  844,  845,  846,  847,  848,  849,  850,  851,  852,  853,  854,  855,  856
  857,  858,  859,  860,  861,  862,  863,  864,  865,  866,  867,  868,  869,  870,  871,  872
  873,  874,  875,  876,  877,  878,  879,  880,  881,  882,  883,  884,  885,  886,  887,  888
  889,  890,  891,  892,  893,  894,  895,  896,  897,  898,  899,  900,  901,  902,  903,  904
  905,  906,  907,  908,  909,  910,  911,  912,  913,  914,  915,  916,  917,  918,  919,  920
  921,  922,  923,  924,  925,  926,  927,  928,  929,  930,  931,  932,  933,  934,  935,  936
  937,  938,  939,  940,  941,  942,  943,  944,  945,  946,  947,  948,  949,  950,  951,  952
  953,  954,  955,  956,  957,  958,  959,  960,  961,  962,  963,  964,  965,  966,  967,  968
  969,  970,  971,  972,  973,  974,  975,  976,  977,  978,  979,  980,  981,  982,  983,  984
  985,  986,  987,  988,  989,  990,  991,  992,  993,  994,  995,  996,  997,  998,  999, 1000
 1001, 1002, 1003, 1004, 1005, 1006, 1007, 1008, 1009, 1010, 1011, 1012, 1013, 1014, 1015, 1016
 1017, 1018, 1019, 1020, 1021, 1022, 1023, 1024, 1025, 1026, 1027, 1028, 1029, 1030, 1031, 1032
 1033, 1034, 1035, 1036, 1037, 1038, 1039, 1040, 1041, 1042, 1043, 1044, 1045, 1046, 1047, 1048
 1049, 1050, 1051, 1052
*Elset, elset=SET-7, generate
  933,  1000,     1
*Nset, nset=LEFT
    5,    6,    7,    8,   11,   12,   13,   16,   20,   21,   23,   24,   37,   38,   39,   40
   41,   42,   43,   44,   45,   46,   47,   48,   49,   50,   51,   52,   53,   54,   55,   56
   57,   58,   59,  182,  183,  184,  185,  186,  187,  188,  189,  190,  191,  192,  193,  194
  195,  196,  197,  198,  199,  200,  201,  202,  203,  204,  205,  206,  207,  208,  209,  210
  211,  212,  213,  214,  215,  216,  217,  218,  219,  220,  221,  222,  223,  224,  225,  226
  227,  228,  229,  230,  231,  232,  233,  234,  238,  239,  240,  241,  242,  243,  244,  245
  246,  247,  248,  249,  250,  251,  252,  253,  254,  255,  256,  257,  258,  259,  260,  261
  262,  263,  264,  265,  266,  267,  268,  269,  270,  271,  272,  273,  274,  275,  276,  277
  278,  279,  280,  281,  282,  283,  284,  285,  286,  287,  288,  289,  290,  291,  292,  350
  408,  466,  524,  789,  790,  791,  792,  793,  794,  795,  796,  797,  798,  799,  800,  801
  802,  803,  804,  805,  806,  807,  808,  809,  810,  811,  812,  813,  814,  815,  816,  817
  818,  819,  820,  821,  822,  823,  824,  825,  826,  827,  828,  829,  830,  831,  832,  833
  834,  835,  836,  837,  838,  839,  840,  841,  842,  843,  844,  845,  846,  847,  848,  849
  850,  851,  852,  853,  854,  855,  856,  857,  858,  859,  860,  861,  862,  863,  864,  865
  866,  867,  868,  869,  870,  871,  872,  873,  874,  875,  876,  877,  878,  879,  880,  881
  882,  883,  884,  885,  886,  887,  888,  889,  890,  891,  892,  893,  894,  895,  896,  897
  898,  899,  900,  901,  902,  903,  904,  905,  906,  907,  908,  909,  910,  911,  912,  913
  914,  915,  916,  917,  918,  919,  920,  921,  922,  923,  924,  925,  926,  927,  928,  929
  930,  931,  932,  933,  934,  935,  936,  937,  938,  939,  940,  941,  942,  943,  944,  945
  946,  947,  948,  949,  950,  951,  952,  953,  954,  955,  956,  957,  958,  959,  960,  961
  962,  963,  964,  965,  966,  967,  968,  969,  970,  971,  972,  973,  974,  975,  976,  977
  978,  979,  980,  981,  982,  983,  984,  985,  986,  987,  988,  989,  990,  991,  992,  993
  994,  995,  996,  997,  998,  999, 1000, 1001, 1002, 1003, 1004, 1005, 1006, 1007, 1008, 1009
 1010, 1011, 1012, 1013, 1014, 1015, 1016, 1017, 1018, 1019, 1020, 1021, 1022, 1023, 1024, 1025
 1026, 1027, 1028, 1029, 1030, 1031, 1032, 1033, 1034, 1035, 1036, 1037, 1038, 1039, 1040, 1041
 1042, 1043, 1044, 1045, 1046, 1047, 1048, 1049, 1050, 1051, 1052, 1053, 1054, 1055, 1056, 1057
 1058, 1059, 1060, 1061, 1062, 1063, 1064, 1065, 1066, 1067, 1068, 1069, 1070, 1071, 1072, 1073
 1074, 1075, 1076, 1077, 1078, 1079, 1080, 1081, 1082, 1083, 1084, 1085, 1086, 1087, 1088, 1089
 1090, 1091, 1092, 1093, 1094, 1095, 1096, 1097, 1098, 1099, 1100, 1101, 1102, 1103, 1104, 1105
 1106, 1107, 1108, 1109, 1110, 1111, 1112, 1113, 1114, 1115, 1116, 1117, 1118, 1119, 1120, 1121
 1122, 1123, 1124, 1125, 1126, 1127, 1128, 1129, 1130, 1131, 1132, 1133, 1134, 1135, 1136, 1137
 1138, 1139, 1140, 1141, 1142, 1143, 1144, 1145, 1146, 1147, 1148, 1149, 1150, 1151, 1152, 1153
 1154, 1155, 1156, 1157, 1158, 1159, 1160, 1161, 1162, 1163, 1164, 1165, 1166, 1167, 1168, 1169
 1170, 1171, 1172, 1173, 1174, 1175, 1176, 1177, 1178, 1179, 1180, 1181, 1182, 1183, 1184, 1185
 1186, 1187, 1188, 1189, 1190, 1191, 1192, 1193, 1194, 1195, 1196, 1197, 1198, 1199, 1200, 1201
 1202, 1203, 1204, 1205, 1206, 1594, 1595, 1596, 1597, 1598, 1599, 1600, 1601, 1602, 1603, 1604
 1605, 1606, 1607, 1608, 1609, 1610, 1611, 1612, 1613, 1614, 1615, 1616, 1617, 1618, 1619, 1620
 1621, 1622, 1623, 1624, 1625, 1626, 1627, 1628, 1629, 1630, 1631, 1632, 1633, 1634, 1635, 1636
 1637, 1638, 1639, 1640, 1641, 1642, 1643, 1644, 1645, 1646, 2389, 2390, 2391, 2392, 2393, 2394
 2395, 2396, 2397, 2398, 2399, 2400, 2401, 2402, 2403, 2404, 2405, 2406, 2407, 2408, 2409, 2410
 2411, 2412, 2413, 2414, 2415, 2416, 2417, 2418, 2419, 2420, 2421, 2422, 2423, 2424, 2425, 2426
 2427, 2428, 2429, 2430, 2431, 2432, 2433, 2434, 2435, 2436, 2437, 2438, 2439, 2440, 2441, 2442
 2443, 2444, 2445, 2446, 2447, 2448, 2449, 2450, 2451, 2452, 2453, 2454, 2455, 2456, 2457, 2458
 2459, 2460, 2461, 2462, 2463, 2464, 2465, 2466, 2467, 2468, 2469, 2470, 2471, 2472, 2473, 2474
 2475, 2476, 2477, 2478, 2479, 2480, 2481, 2482, 2483, 2484, 2485, 2486, 2487, 2488, 2489, 2490
 2491, 2492, 2493, 2494, 2495, 2496, 2497, 2498, 2499, 2500, 2501, 2502, 2503, 2504, 2505, 2506
 2507, 2508, 2509, 2510, 2511, 2512, 2513, 2514, 2515, 2516, 2517, 2518, 2519, 2520, 2521, 2522
 2523, 2524, 2525, 2526, 2527, 2528, 2529, 2530, 2531, 2532, 2533, 2534, 2535, 2536, 2537, 2538
 2539, 2540, 2541, 2542, 2543, 2544, 2545, 2546, 2547, 2548, 2549, 2550, 2551, 2552, 2553, 2554
 2555, 2556, 2557, 2558, 2559, 2560, 2561, 2562, 2563, 2564, 2565, 2566, 2567, 2568, 2569, 2570
 2571, 2572, 2573, 2574, 2575, 2576, 2577, 2578, 2579, 2580, 2581, 2582, 2583, 2584, 2585, 2586
 2587, 2588, 2589, 2590, 2591, 2592, 2593, 2594, 2595, 2596, 2597, 2598, 2599, 2600, 2601, 2602
 2603, 2604, 2605, 2606, 2607, 2608, 2609, 2610, 2611, 2612, 2613, 2614, 2615, 2616, 2617, 2618
 2619, 2620, 2621, 2622, 2623, 2624, 2625, 2626, 2627, 2628, 2629, 2630, 2631, 2632, 2633, 2634
 2635, 2636, 2637, 2638, 2639, 2640, 2641, 2642, 2643, 2644, 2645, 2646, 2647, 2648, 2649, 2650
 2651, 2652, 2653, 2654, 2655, 2656, 2657, 2658, 2659, 2660, 2661, 2662, 2663, 2664, 2665, 2666
 2667, 2668, 2669, 2670, 2671, 2672, 2673, 2674, 2675, 2676, 2677, 2678, 2679, 2680, 2681, 2682
 2683, 2684, 2685, 2686, 2687, 2688, 2689, 2690, 2691, 2692, 2693, 2694, 2695, 2696, 2697, 2698
 2699, 2700, 2701, 2702, 2703, 2704, 2705, 2706, 2707, 2708, 2709, 2710, 2711, 2712, 2713, 2714
 2715, 2716, 2717, 2718, 2719, 2720, 2721, 2722, 2723, 2724, 2725, 2726, 2727, 2728, 2729, 2730
 2731, 2732, 2733, 2734, 2735, 2736, 2737, 2738, 2739, 2740, 2741, 2742, 2743, 2744, 2745, 2746
 2747, 2748, 2749, 2750, 2751, 2752, 2753, 2754, 2755, 2756, 2757, 2758, 2759, 2760, 2761, 2762
 2763, 2764, 2765, 2766, 2767, 2768, 2769, 2770, 2771, 2772, 2773, 2774, 2775, 2776, 2777, 2778
 2779, 2780, 2781, 2782, 2783, 2784, 2785, 2786, 2787, 2788, 2789, 2790, 2791, 2792, 2793, 2794
 2795, 2796, 2797, 2798, 2799, 2800, 2801, 2802, 2803, 2804, 2805, 2806, 2807, 2808, 2809, 2810
 2811, 2812, 2813, 2814, 2815, 2816, 2817, 2818, 2819, 2820, 2821, 2822, 2823, 2824, 2825, 2826
 2827, 2828, 2829, 2830, 2831, 2832, 2833, 2834, 2835, 2836, 2837, 2838, 2839, 2840, 2841, 2842
 2843, 2844, 2845, 2846, 2847, 2848, 2849, 2850, 2851, 2852, 2853, 2854, 2855, 2856, 2857, 2858
 2859, 2860, 2861, 2862, 2863, 2864, 2865, 2866, 2867, 2868, 2869, 2870, 2871, 2872, 2873, 2874
 2875, 2876, 2877, 2878, 2879, 2880, 2881, 2882, 2883, 2884, 2885, 2886, 2887, 2888, 2889, 2890
 2891, 2892, 2893, 2894, 2895, 2896, 2897, 2898, 2899, 2900, 2901, 2902, 2903, 2904, 2905, 2906
 2907, 2908, 2909, 2910, 2911, 2912, 2913, 2914, 2915, 2916, 2917, 2918, 2919, 2920, 2921, 2922
 2923, 2924, 2925, 2926, 2927, 2928, 2929, 2930, 2931, 2932, 2933, 2934, 2935, 2936, 2937, 2938
 2939, 2940, 2941, 2942, 2943, 2944, 2945, 2946, 2947, 2948, 2949, 2950, 2951, 2952, 2953, 2954
 2955, 2956, 2957, 2958, 2959, 2960, 2961, 2962, 2963, 2964, 2965, 2966, 2967, 2968, 2969, 2970
 2971, 2972, 2973, 2974, 2975, 2976, 2977, 2978, 2979, 2980, 2981, 2982, 2983, 2984, 2985, 2986
 2987, 2988, 2989, 2990, 2991, 2992, 2993, 2994, 2995, 2996, 2997, 2998, 2999, 3000, 3001, 3002
 3003, 3004, 3005, 3006, 3007, 3008, 3009, 3010, 3011, 3012, 3013, 3014, 3015, 3016, 3017, 3018
 3019, 3020, 3021, 3022, 3023, 3024, 3025, 3026, 3027, 3028, 3029, 3030, 3031, 3032, 3033, 3034
 3035, 3036, 3037, 3038, 3039, 3040, 3041, 3042, 3043, 3044, 3045, 3046, 3047, 3048, 3049, 3050
 3051, 3052, 3053, 3054, 3055, 3056, 3057, 3058, 3059, 3060, 3061, 3062, 3063, 3064, 3065, 3066
 3067, 3068, 3069, 3070, 3071, 3072, 3073, 3074, 3075, 3076, 3077, 3078, 3079, 3080, 3081, 3082
 3083, 3084, 3085, 3086, 3087, 3088, 3089, 3090, 3091, 3092, 3093, 3094, 3095, 3096, 3097, 3098
 3099, 3100, 3101, 3102, 3103, 3104, 3105, 3106, 3107, 3108, 3109, 3110, 3111, 3112, 3113, 3114
 3115, 3116, 3117, 3118, 3119, 3120, 3121, 3122, 3123, 3124, 3125, 3126, 3127, 3128, 3129, 3130
 3131, 3132, 3133, 3134, 3135, 3136, 3137, 3138, 3139, 3140, 3141, 3142, 3143, 3144, 3145, 3146
 3147, 3148, 3149, 3150, 3151, 3152, 3153, 3154, 3155, 3156, 3157, 3158, 3159, 3160, 3161, 3162
 3163, 3164, 3165, 3166, 3167, 3168, 3169, 3170, 3171, 3172, 3173, 3174, 4285, 4286, 4287, 4288
 4289, 4290, 4291, 4292, 4293, 4294, 4295, 4296, 4297, 4298, 4299, 4300, 4301, 4302, 4303, 4304
 4305, 4306, 4307, 4308, 4309, 4310, 4311, 4312, 4313, 4314, 4315, 4316, 4317, 4318, 4319, 4320
 4321, 4322, 4323, 4324, 4325, 4326, 4327, 4328, 4329, 4330, 4331, 4332, 4333, 4334, 4335, 4336
 4337, 4338, 4339, 4340, 4341, 4342, 4343, 4344, 4345, 4346, 4347, 4348, 4349, 4350, 4351, 4352
 4353, 4354, 4355, 4356, 4357, 4358, 4359, 4360, 4361, 4362, 4363, 4364, 4365, 4366, 4367, 4368
 4369, 4370, 4371, 4372, 4373, 4374, 4375, 4376, 4377, 4378, 4379, 4380, 4381, 4382, 4383, 4384
 4385, 4386, 4387, 4388, 4389, 4390, 4391, 4392, 4393, 4394, 4395, 4396, 4397, 4398, 4399, 4400
 4401, 4402, 4403, 4404, 4405, 4406, 4407, 4408, 4409, 4410, 4411, 4412, 4413, 4414, 4415, 4416
 4417, 4418, 4419, 4420, 4421, 4422, 4423, 4424, 4425, 4426, 4427, 4428, 4429, 4430, 4431, 4432
 4433, 4434, 4435, 4436, 4437, 4438, 4439, 4440, 4441, 4442, 4443, 4444, 4445, 4446, 4447, 4448
 4449, 4450, 4451, 4452, 4453, 4454, 4455, 4456, 4457, 4458, 4459, 4460, 4461, 4462, 4463, 4464
 4465, 4466, 4467, 4468, 4469, 4470, 4471, 4472, 4473, 4474, 4475, 4476, 4477, 4478, 4479, 4480
 4481, 4482, 4483, 4484, 4485, 4486, 4487, 4488, 4489, 4490, 4491, 4492, 4493, 4494, 4495, 4496
 4497, 4498, 4499, 4500, 4501, 4502, 4503, 4504, 4505, 4506, 4507, 4508, 4509, 4510, 4511, 4512
 4513, 4514, 4515, 4516, 4517, 4518, 4519, 4520, 4521, 4522, 4523, 4524, 4525, 4526, 4527, 4528
 4529, 4530, 4531, 4532, 4533, 4534, 4535, 4536, 4537, 4538, 4539, 4540, 4541, 4542, 4543, 4544
 4545, 4546, 4547, 4548, 4549, 4550, 4551, 4552, 4553, 4554, 4555, 4556, 4557, 4558, 4559, 4560
 4561, 4562, 4563, 4564, 4565, 4566, 4567, 4568, 4569, 4570, 4571, 4572, 4573, 4574, 4575, 4576
 4577, 4578, 4579, 4580, 4581, 4582, 4583, 4584, 4585, 4586, 4587, 4588, 4589, 4590, 4591, 4592
 4593, 4594, 4595, 4596, 4597, 4598, 4599, 4600, 4601, 4602, 4603, 4604, 4605, 4606, 4607, 4608
 4609, 4610, 4611, 4612, 4613, 4614, 4615, 4616, 4617, 4618, 4619, 4620, 4621, 4622, 4623, 4624
 4625, 4626, 4627, 4628, 4629, 4630, 4631, 4632, 4633, 4634, 4635, 4636, 4637, 4638, 4639, 4640
 4641, 4642, 4643, 4644, 4645, 4646, 4647, 4648, 4649, 4650, 4651, 4652, 4653, 4654, 4655, 4656
*Elset, elset=LEFT, generate
  933,  1916,     1
*Nset, nset=RIGHT
    1,    2,    3,    4,    9,   10,   14,   15,   17,   18,   19,   22,   25,   26,   27,   28
   29,   30,   31,   32,   33,   34,   35,   36,   60,   61,   62,   63,   64,   65,   66,   67
   68,   69,   70,   71,   72,   73,   74,   75,   76,   77,   78,   79,   80,   81,   82,   83
   84,   85,   86,   87,   88,   89,   90,   91,   92,   93,   94,   95,   96,   97,   98,   99
  100,  101,  102,  103,  104,  105,  106,  107,  108,  109,  110,  111,  112,  113,  114,  115
  116,  117,  118,  119,  120,  121,  122,  123,  124,  125,  126,  127,  128,  129,  130,  131
  132,  133,  134,  135,  136,  137,  138,  139,  140,  141,  142,  143,  144,  145,  146,  147
  148,  149,  150,  151,  152,  153,  154,  155,  156,  157,  158,  159,  160,  161,  162,  163
  164,  165,  166,  167,  168,  169,  170,  171,  172,  173,  174,  175,  176,  177,  178,  346
  404,  462,  520,  525,  526,  527,  528,  529,  530,  531,  532,  533,  534,  535,  536,  537
  538,  539,  540,  541,  542,  543,  544,  545,  546,  547,  548,  549,  550,  551,  552,  553
  554,  555,  556,  557,  558,  559,  560,  561,  562,  563,  564,  565,  566,  567,  568,  569
  570,  571,  572,  573,  574,  575,  576,  577,  578,  579,  580,  581,  582,  583,  584,  585
  586,  587,  588,  589,  590,  591,  592,  593,  594,  595,  596,  597,  598,  599,  600,  601
  602,  603,  604,  605,  606,  607,  608,  609,  610,  611,  612,  613,  614,  615,  616,  617
  618,  619,  620,  621,  622,  623,  624,  625,  626,  627,  628,  629,  630,  631,  632,  633
  634,  635,  636,  637,  638,  639,  640,  641,  642,  643,  644,  645,  646,  647,  648,  649
  650,  651,  652,  653,  654,  655,  656,  657,  658,  659,  660,  661,  662,  663,  664,  665
  666,  667,  668,  669,  670,  671,  672,  673,  674,  675,  676,  677,  678,  679,  680,  681
  682,  683,  684,  685,  686,  687,  688,  689,  690,  691,  692,  693,  694,  695,  696,  697
  698,  699,  700,  701,  702,  703,  704,  705,  706,  707,  708,  709,  710,  711,  712,  713
  714,  715,  716,  717,  718,  719,  720,  721,  722,  723,  724,  725,  726,  727,  728,  729
  730,  731,  732,  733,  734,  735,  736,  737,  738,  739,  740,  741,  742,  743,  744,  745
  746,  747,  748,  749,  750,  751,  752,  753,  754,  755,  756,  757,  758,  759,  760,  761
  762,  763,  764,  765,  766,  767,  768,  769,  770,  771,  772,  773,  774,  775,  776,  777
  778,  779,  780,  781,  782,  783,  784,  785,  786,  787,  788, 1228, 1229, 1230, 1231, 1232
 1233, 1234, 1235, 1236, 1237, 1238, 1239, 1240, 1241, 1242, 1243, 1244, 1245, 1246, 1247, 1248
 1249, 1250, 1251, 1252, 1253, 1254, 1255, 1256, 1257, 1258, 1259, 1260, 1261, 1262, 1263, 1264
 1265, 1266, 1267, 1268, 1269, 1270, 1271, 1272, 1273, 1274, 1275, 1276, 1277, 1278, 1279, 1280
 1281, 1282, 1283, 1284, 1285, 1286, 1287, 1288, 1289, 1290, 1291, 1292, 1293, 1294, 1295, 1296
 1297, 1298, 1299, 1300, 1301, 1302, 1303, 1304, 1305, 1306, 1307, 1308, 1309, 1310, 1311, 1312
 1313, 1314, 1315, 1316, 1317, 1318, 1319, 1320, 1321, 1322, 1323, 1324, 1325, 1326, 1327, 1328
 1329, 1330, 1331, 1332, 1333, 1334, 1335, 1336, 1337, 1338, 1339, 1340, 1341, 1342, 1343, 1344
 1345, 1346, 1347, 1348, 1349, 1350, 1351, 1352, 1353, 1354, 1355, 1356, 1357, 1358, 1359, 1360
 1361, 1362, 1363, 1364, 1365, 1366, 1367, 1368, 1369, 1370, 1371, 1372, 1373, 1374, 1375, 1376
 1377, 1378, 1379, 1380, 1381, 1382, 1383, 1384, 1385, 1386, 1387, 1388, 1389, 1390, 1391, 1392
 1393, 1394, 1395, 1396, 1397, 1398, 1399, 1400, 1401, 1402, 1403, 1404, 1405, 1406, 1407, 1408
 1409, 1410, 1411, 1412, 1413, 1414, 1415, 1416, 1417, 1418, 1419, 1420, 1421, 1422, 1423, 1424
 1425, 1426, 1427, 1428, 1429, 1430, 1431, 1432, 1433, 1434, 3175, 3176, 3177, 3178, 3179, 3180
 3181, 3182, 3183, 3184, 3185, 3186, 3187, 3188, 3189, 3190, 3191, 3192, 3193, 3194, 3195, 3196
 3197, 3198, 3199, 3200, 3201, 3202, 3203, 3204, 3205, 3206, 3207, 3208, 3209, 3210, 3211, 3212
 3213, 3214, 3215, 3216, 3217, 3218, 3219, 3220, 3221, 3222, 3223, 3224, 3225, 3226, 3227, 3228
 3229, 3230, 3231, 3232, 3233, 3234, 3235, 3236, 3237, 3238, 3239, 3240, 3241, 3242, 3243, 3244
 3245, 3246, 3247, 3248, 3249, 3250, 3251, 3252, 3253, 3254, 3255, 3256, 3257, 3258, 3259, 3260
 3261, 3262, 3263, 3264, 3265, 3266, 3267, 3268, 3269, 3270, 3271, 3272, 3273, 3274, 3275, 3276
 3277, 3278, 3279, 3280, 3281, 3282, 3283, 3284, 3285, 3286, 3287, 3288, 3289, 3290, 3291, 3292
 3293, 3294, 3295, 3296, 3297, 3298, 3299, 3300, 3301, 3302, 3303, 3304, 3305, 3306, 3307, 3308
 3309, 3310, 3311, 3312, 3313, 3314, 3315, 3316, 3317, 3318, 3319, 3320, 3321, 3322, 3323, 3324
 3325, 3326, 3327, 3328, 3329, 3330, 3331, 3332, 3333, 3334, 3335, 3336, 3337, 3338, 3339, 3340
 3341, 3342, 3343, 3344, 3345, 3346, 3347, 3348, 3349, 3350, 3351, 3352, 3353, 3354, 3355, 3356
 3357, 3358, 3359, 3360, 3361, 3362, 3363, 3364, 3365, 3366, 3367, 3368, 3369, 3370, 3371, 3372
 3373, 3374, 3375, 3376, 3377, 3378, 3379, 3380, 3381, 3382, 3383, 3384, 3385, 3386, 3387, 3388
 3389, 3390, 3391, 3392, 3393, 3394, 3395, 3396, 3397, 3398, 3399, 3400, 3401, 3402, 3403, 3404
 3405, 3406, 3407, 3408, 3409, 3410, 3411, 3412, 3413, 3414, 3415, 3416, 3417, 3418, 3419, 3420
 3421, 3422, 3423, 3424, 3425, 3426, 3427, 3428, 3429, 3430, 3431, 3432, 3433, 3434, 3435, 3436
 3437, 3438, 3439, 3440, 3441, 3442, 3443, 3444, 3445, 3446, 3447, 3448, 3449, 3450, 3451, 3452
 3453, 3454, 3455, 3456, 3457, 3458, 3459, 3460, 3461, 3462, 3463, 3464, 3465, 3466, 3467, 3468
 3469, 3470, 3471, 3472, 3473, 3474, 3475, 3476, 3477, 3478, 3479, 3480, 3481, 3482, 3483, 3484
 3485, 3486, 3487, 3488, 3489, 3490, 3491, 3492, 3493, 3494, 3495, 3496, 3497, 3498, 3499, 3500
 3501, 3502, 3503, 3504, 3505, 3506, 3507, 3508, 3509, 3510, 3511, 3512, 3513, 3514, 3515, 3516
 3517, 3518, 3519, 3520, 3521, 3522, 3523, 3524, 3525, 3526, 3527, 3528, 3529, 3530, 3531, 3532
 3533, 3534, 3535, 3536, 3537, 3538, 3539, 3540, 3541, 3542, 3543, 3544, 3545, 3546, 3871, 3872
 3873, 3874, 3875, 3876, 3877, 3878, 3879, 3880, 3881, 3882, 3883, 3884, 3885, 3886, 3887, 3888
 3889, 3890, 3891, 3892, 3893, 3894, 3895, 3896, 3897, 3898, 3899, 3900, 3901, 3902, 3903, 3904
 3905, 3906, 3907, 3908, 3909, 3910, 3911, 3912, 3913, 3914, 3915, 3916, 3917, 3918, 3919, 3920
 3921, 3922, 3923, 3924, 3925, 3926, 3927, 3928, 3929, 3930, 3931, 3932, 3933, 3934, 3935, 3936
 3937, 3938, 3939, 3940, 3941, 3942, 3943, 3944, 3945, 3946, 3947, 3948, 3949, 3950, 3951, 3952
 3953, 3954, 3955, 3956, 3957, 3958, 3959, 3960, 3961, 3962, 3963, 3964, 3965, 3966, 3967, 3968
 3969, 3970, 3971, 3972, 3973, 3974, 3975, 3976, 3977, 3978, 3979, 3980, 3981, 3982, 3983, 3984
 3985, 3986, 3987, 3988, 3989, 3990, 3991, 3992, 3993, 3994, 3995, 3996, 3997, 3998, 3999, 4000
 4001, 4002, 4003, 4004, 4005, 4006, 4007, 4008, 4009, 4010, 4011, 4012, 4013, 4014, 4015, 4016
 4017, 4018, 4019, 4020, 4021, 4022, 4023, 4024, 4025, 4026, 4027, 4028, 4029, 4030, 4031, 4032
 4033, 4034, 4035, 4036, 4037, 4038, 4039, 4040, 4041, 4042, 4043, 4044, 4045, 4046, 4047, 4048
 4049, 4050, 4051, 4052, 4053, 4054, 4055, 4056, 4057, 4058, 4059, 4060, 4061, 4062, 4063, 4064
 4065, 4066, 4067, 4068, 4069, 4070, 4071, 4072, 4073, 4074, 4075, 4076, 4077, 4078, 4079, 4080
 4081, 4082, 4083, 4084, 4085, 4086, 4087, 4088, 4089, 4090, 4091, 4092, 4093, 4094, 4095, 4096
 4097, 4098, 4099, 4100, 4101, 4102, 4103, 4104, 4105, 4106, 4107, 4108, 4109, 4110, 4111, 4112
 4113, 4114, 4115, 4116, 4117, 4118, 4119, 4120, 4121, 4122, 4123, 4124, 4125, 4126, 4127, 4128
 4129, 4130, 4131, 4132, 4133, 4134, 4135, 4136, 4137, 4138, 4139, 4140, 4141, 4142, 4143, 4144
 4145, 4146, 4147, 4148, 4149, 4150, 4151, 4152, 4153, 4154, 4155, 4156, 4157, 4158, 4159, 4160
 4161, 4162, 4163, 4164, 4165, 4166, 4167, 4168, 4169, 4170, 4171, 4172, 4173, 4174, 4175, 4176
 4177, 4178, 4179, 4180, 4181, 4182, 4183, 4184, 4185, 4186, 4187, 4188, 4189, 4190, 4191, 4192
 4193, 4194, 4195, 4196, 4197, 4198, 4199, 4200, 4201, 4202, 4203, 4204, 4205, 4206, 4207, 4208
 4209, 4210, 4211, 4212, 4213, 4214, 4215, 4216, 4217, 4218, 4219, 4220, 4221, 4222, 4223, 4224
 4225, 4226, 4227, 4228, 4229, 4230, 4231, 4232, 4233, 4234, 4235, 4236, 4237, 4238, 4239, 4240
 4241, 4242, 4243, 4244, 4245, 4246, 4247, 4248, 4249, 4250, 4251, 4252, 4253, 4254, 4255, 4256
 4257, 4258, 4259, 4260, 4261, 4262, 4263, 4264, 4265, 4266, 4267, 4268, 4269, 4270, 4271, 4272
 4273, 4274, 4275, 4276, 4277, 4278, 4279, 4280, 4281, 4282, 4283, 4284, 5773, 5774, 5775, 5776
 5777, 5778, 5779, 5780, 5781, 5782, 5783, 5784, 5785, 5786, 5787, 5788, 5789, 5790, 5791, 5792
 5793, 5794, 5795, 5796, 5797, 5798, 5799, 5800, 5801, 5802, 5803, 5804, 5805, 5806, 5807, 5808
 5809, 5810, 5811, 5812, 5813, 5814, 5815, 5816, 5817, 5818, 5819, 5820, 5821, 5822, 5823, 5824
 5825, 5826, 5827, 5828, 5829, 5830, 5831, 5832, 5833, 5834, 5835, 5836, 5837, 5838, 5839, 5840
 5841, 5842, 5843, 5844, 5845, 5846, 5847, 5848, 5849, 5850, 5851, 5852, 5853, 5854, 5855, 5856
 5857, 5858, 5859, 5860, 5861, 5862, 5863, 5864, 5865, 5866, 5867, 5868, 5869, 5870, 5871, 5872
 5873, 5874, 5875, 5876, 5877, 5878, 5879, 5880, 5881, 5882, 5883, 5884, 5885, 5886, 5887, 5888
 5889, 5890, 5891, 5892, 5893, 5894, 5895, 5896, 5897, 5898, 5899, 5900, 5901, 5902, 5903, 5904
 5905, 5906, 5907, 5908, 5909, 5910, 5911, 5912, 5913, 5914, 5915, 5916, 5917, 5918, 5919, 5920
 5921, 5922, 5923, 5924, 5925, 5926, 5927, 5928, 5929, 5930, 5931, 5932, 5933, 5934, 5935, 5936
 5937, 5938, 5939, 5940, 5941, 5942, 5943, 5944, 5945, 5946, 5947, 5948, 5949, 5950, 5951, 5952
 5953, 5954, 5955, 5956, 5957, 5958, 5959, 5960, 5961, 5962, 5963, 5964, 5965, 5966, 5967, 5968
 5969, 5970, 5971, 5972, 5973, 5974, 5975, 5976, 5977, 5978, 5979, 5980, 5981, 5982, 5983, 5984
 5985, 5986, 5987, 5988, 5989, 5990, 5991, 5992, 5993, 5994, 5995, 5996, 5997, 5998, 5999, 6000
 6001, 6002, 6003, 6004, 6005, 6006, 6007, 6008, 6009, 6010, 6011, 6012, 6013, 6014, 6015, 6016
 6017, 6018, 6019, 6020, 6021, 6022, 6023, 6024, 6025, 6026, 6027, 6028, 6029, 6030, 6031, 6032
 6033, 6034, 6035, 6036, 6037, 6038, 6039, 6040, 6041, 6042, 6043, 6044, 6045, 6046, 6047, 6048
 6049, 6050, 6051, 6052, 6053, 6054, 6055, 6056, 6057, 6058, 6059, 6060, 6061, 6062, 6063, 6064
 6065, 6066, 6067, 6068, 6069, 6070, 6071, 6072, 6073, 6074, 6075, 6076, 6077, 6078, 6079, 6080
 6081, 6082, 6083, 6084, 6085, 6086, 6087, 6088, 6089, 6090, 6091, 6092, 6093, 6094, 6095, 6096
 6097, 6098, 6099, 6100, 6101, 6102, 6103, 6104, 6105, 6106, 6107, 6108, 6109, 6110, 6111, 6112
 6113, 6114, 6115, 6116, 6117, 6118, 6119, 6120, 6121, 6122, 6123, 6124, 6125, 6126, 6127, 6128
 6129, 6130, 6131, 6132, 6133, 6134, 6135, 6136, 6137, 6138, 6139, 6140, 6141, 6142, 6143, 6144
*Elset, elset=RIGHT
  865,  866,  867,  868,  869,  870,  871,  872,  873,  874,  875,  876,  877,  878,  879,  880
  881,  882,  883,  884,  885,  886,  887,  888,  889,  890,  891,  892,  893,  894,  895,  896
  897,  898,  899,  900,  901,  902,  903,  904,  905,  906,  907,  908,  909,  910,  911,  912
  913,  914,  915,  916,  917,  918,  919,  920,  921,  922,  923,  924,  925,  926,  927,  928
  929,  930,  931,  932, 3749, 3750, 3751, 3752, 3753, 3754, 3755, 3756, 3757, 3758, 3759, 3760
 3761, 3762, 3763, 3764, 3765, 3766, 3767, 3768, 3769, 3770, 3771, 3772, 3773, 3774, 3775, 3776
 3777, 3778, 3779, 3780, 3781, 3782, 3783, 3784, 3785, 3786, 3787, 3788, 3789, 3790, 3791, 3792
 3793, 3794, 3795, 3796, 3797, 3798, 3799, 3800, 3801, 3802, 3803, 3804, 3805, 3806, 3807, 3808
 3809, 3810, 3811, 3812, 3813, 3814, 3815, 3816, 3817, 3818, 3819, 3820, 3821, 3822, 3823, 3824
 3825, 3826, 3827, 3828, 3829, 3830, 3831, 3832, 3833, 3834, 3835, 3836, 3837, 3838, 3839, 3840
 3841, 3842, 3843, 3844, 3845, 3846, 3847, 3848, 3849, 3850, 3851, 3852, 3853, 3854, 3855, 3856
 3857, 3858, 3859, 3860, 3861, 3862, 3863, 3864, 3865, 3866, 3867, 3868, 3869, 3870, 3871, 3872
 3873, 3874, 3875, 3876, 3877, 3878, 3879, 3880, 3881, 3882, 3883, 3884, 3885, 3886, 3887, 3888
 3889, 3890, 3891, 3892, 3893, 3894, 3895, 3896, 3897, 3898, 3899, 3900, 3901, 3902, 3903, 3904
 3905, 3906, 3907, 3908, 3909, 3910, 3911, 3912, 3913, 3914, 3915, 3916, 3917, 3918, 3919, 3920
 3921, 3922, 3923, 3924, 3925, 3926, 3927, 3928, 3929, 3930, 3931, 3932, 3933, 3934, 3935, 3936
 3937, 3938, 3939, 3940, 3941, 3942, 3943, 3944, 3945, 3946, 3947, 3948, 3949, 3950, 3951, 3952
 3953, 3954, 3955, 3956, 3957, 3958, 3959, 3960, 3961, 3962, 3963, 3964, 3965, 3966, 3967, 3968
 3969, 3970, 3971, 3972, 3973, 3974, 3975, 3976, 3977, 3978, 3979, 3980, 3981, 3982, 3983, 3984
 3985, 3986, 3987, 3988, 3989, 3990, 3991, 3992, 3993, 3994, 3995, 3996, 3997, 3998, 3999, 4000
 4001, 4002, 4003, 4004, 4005, 4006, 4007, 4008, 4009, 4010, 4011, 4012, 4013, 4014, 4015, 4016
 4017, 4018, 4019, 4020, 4021, 4022, 4023, 4024, 4025, 4026, 4027, 4028, 4029, 4030, 4031, 4032
 4033, 4034, 4035, 4036, 4037, 4038, 4039, 4040, 4041, 4042, 4043, 4044, 4045, 4046, 4047, 4048
 4049, 4050, 4051, 4052, 4053, 4054, 4055, 4056, 4057, 4058, 4059, 4060, 4061, 4062, 4063, 4064
 4065, 4066, 4067, 4068, 4069, 4070, 4071, 4072, 4073, 4074, 4075, 4076, 4077, 4078, 4079, 4080
 4081, 4082, 4083, 4084, 4085, 4086, 4087, 4088, 4089, 4090, 4091, 4092, 4093, 4094, 4095, 4096
 4097, 4098, 4099, 4100, 4101, 4102, 4103, 4104, 4105, 4106, 4107, 4108, 4109, 4110, 4111, 4112
 4113, 4114, 4115, 4116, 4117, 4118, 4119, 4120, 4121, 4122, 4123, 4124, 4125, 4126, 4127, 4128
 4129, 4130, 4131, 4132, 4133, 4134, 4135, 4136, 4137, 4138, 4139, 4140, 4141, 4142, 4143, 4144
 4145, 4146, 4147, 4148, 4149, 4150, 4151, 4152, 4153, 4154, 4155, 4156, 4157, 4158, 4159, 4160
 4161, 4162, 4163, 4164, 4165, 4166, 4167, 4168, 4169, 4170, 4171, 4172, 4173, 4174, 4175, 4176
 4177, 4178, 4179, 4180, 4181, 4182, 4183, 4184, 4185, 4186, 4187, 4188, 4189, 4190, 4191, 4192
 4193, 4194, 4195, 4196, 4197, 4198, 4199, 4200, 4201, 4202, 4203, 4204, 4205, 4206, 4207, 4208
 4209, 4210, 4211, 4212, 4213, 4214, 4215, 4216, 4217, 4218, 4219, 4220, 4221, 4222, 4223, 4224
 4225, 4226, 4227, 4228, 4229, 4230, 4231, 4232, 4233, 4234, 4235, 4236, 4237, 4238, 4239, 4240
 4241, 4242, 4243, 4244, 4245, 4246, 4247, 4248, 4249, 4250, 4251, 4252, 4253, 4254, 4255, 4256
 4257, 4258, 4259, 4260, 4261, 4262, 4263, 4264, 4265, 4266, 4267, 4268, 4269, 4270, 4271, 4272
 4273, 4274, 4275, 4276, 4277, 4278, 4279, 4280, 4281, 4282, 4283, 4284, 4285, 4286, 4287, 4288
 4289, 4290, 4291, 4292, 4293, 4294, 4295, 4296, 4297, 4298, 4299, 4300, 4301, 4302, 4303, 4304
 4305, 4306, 4307, 4308, 4309, 4310, 4311, 4312, 4313, 4314, 4315, 4316, 4317, 4318, 4319, 4320
 4321, 4322, 4323, 4324, 4325, 4326, 4327, 4328, 4329, 4330, 4331, 4332, 4333, 4334, 4335, 4336
 4337, 4338, 4339, 4340, 4341, 4342, 4343, 4344, 4345, 4346, 4347, 4348, 4349, 4350, 4351, 4352
 4353, 4354, 4355, 4356, 4357, 4358, 4359, 4360, 4361, 4362, 4363, 4364, 4365, 4366, 4367, 4368
 4369, 4370, 4371, 4372, 4373, 4374, 4375, 4376, 4377, 4378, 4379, 4380, 4381, 4382, 4383, 4384
 4385, 4386, 4387, 4388, 4389, 4390, 4391, 4392, 4393, 4394, 4395, 4396, 4397, 4398, 4399, 4400
 4401, 4402, 4403, 4404, 4405, 4406, 4407, 4408, 4409, 4410, 4411, 4412, 4413, 4414, 4415, 4416
 4417, 4418, 4419, 4420, 4421, 4422, 4423, 4424, 4425, 4426, 4427, 4428, 4429, 4430, 4431, 4432
 4433, 4434, 4435, 4436, 4437, 4438, 4439, 4440, 4441, 4442, 4443, 4444, 4445, 4446, 4447, 4448
 4449, 4450, 4451, 4452, 4453, 4454, 4455, 4456, 4457, 4458, 4459, 4460, 4461, 4462, 4463, 4464
 4465, 4466, 4467, 4468, 4469, 4470, 4471, 4472, 4473, 4474, 4475, 4476, 4477, 4478, 4479, 4480
 4481, 4482, 4483, 4484, 4485, 4486, 4487, 4488, 4489, 4490, 4491, 4492, 4493, 4494, 4495, 4496
 4497, 4498, 4499, 4500, 4501, 4502, 4503, 4504, 4505, 4506, 4507, 4508, 4509, 4510, 4511, 4512
 4513, 4514, 4515, 4516, 4517, 4518, 4519, 4520, 4521, 4522, 4523, 4524, 4525, 4526, 4527, 4528
 4529, 4530, 4531, 4532, 4533, 4534, 4535, 4536, 4537, 4538, 4539, 4540, 4541, 4542, 4543, 4544
 4545, 4546, 4547, 4548, 4549, 4550, 4551, 4552, 4553, 4554, 4555, 4556, 4557, 4558, 4559, 4560
 4561, 4562, 4563, 4564, 4565, 4566, 4567, 4568, 4569, 4570, 4571, 4572, 4573, 4574, 4575, 4576
 4577, 4578, 4579, 4580, 4581, 4582, 4583, 4584, 4585, 4586, 4587, 4588, 4589, 4590, 4591, 4592
 4593, 4594, 4595, 4596, 4597, 4598, 4599, 4600, 4601, 4602, 4603, 4604, 4605, 4606, 4607, 4608
 4609, 4610, 4611, 4612, 4613, 4614, 4615, 4616, 4617, 4618, 4619, 4620, 4621, 4622, 4623, 4624
 4625, 4626, 4627, 4628, 4629, 4630, 4631, 4632, 4633, 4634, 4635, 4636, 4637, 4638, 4639, 4640
 4641, 4642, 4643, 4644, 4645, 4646, 4647, 4648, 4649, 4650, 4651, 4652, 4653, 4654, 4655, 4656
 4657, 4658, 4659, 4660, 4661, 4662, 4663, 4664
** Section: Section-1-SET-2
*Solid Section, elset=SET-2, material="Stone arches"
,
** Section: Section-2-SET-1
*Solid Section, elset=SET-1, material="Stone arches"
,
** Section: Section-3-RIGHT
*Solid Section, elset=RIGHT, material="Side wall right"
,
** Section: Section-4-LEFT
*Solid Section, elset=LEFT, material="Side wall left"
,
** Section: Section-5-SET-5
*Solid Section, elset=SET-5, material="Timber block"
,
*End Part
**  
**
** ASSEMBLY
**
*Assembly, name=Assembly
**  
*Instance, name="Arch bridge-1", part="Arch bridge"
*End Instance
**  
*Nset, nset=SENSOR_POSITION1, instance="Arch bridge-1"
 52,
*Nset, nset=SENSOR_POSITION2, instance="Arch bridge-1"
 52,
*Nset, nset=SENSOR_POSITION3, instance="Arch bridge-1"
 63,
*Nset, nset=SENSOR_POSITION4, instance="Arch bridge-1"
 63,
*Nset, nset=SENSOR_POSITION5, instance="Arch bridge-1"
 1114,
*Nset, nset=SENSOR_POSITION6, instance="Arch bridge-1"
 1114,
*Nset, nset=SENSOR_POSITION7, instance="Arch bridge-1"
 1269,
*Nset, nset=SENSOR_POSITION8, instance="Arch bridge-1"
 1269,
*Nset, nset=SENSOR_POSITION9, instance="Arch bridge-1"
 1076,
*Nset, nset=SENSOR_POSITION10, instance="Arch bridge-1"
 1076,
*Nset, nset=SENSOR_POSITION11, instance="Arch bridge-1"
 1307,
*Nset, nset=SENSOR_POSITION12, instance="Arch bridge-1"
 1307,
*Nset, nset=SET-1, instance="Arch bridge-1"
   49,   50,   58,   59,   65,   66,   69,   70, 1054, 1055, 1056, 1057, 1190, 1201, 1202, 1203
 1204, 1205, 1210, 1211, 1212, 1213, 1214, 1215, 1326, 1327, 1328, 1329, 1375, 1376, 1377, 1378
 1379, 1380, 2798, 2799, 2800, 2801, 3565, 3566, 3567, 3568, 3569, 3570, 3571, 3572, 3573, 3574
 3575, 3576, 3908, 3909, 3910, 3911
*Elset, elset=SET-1, instance="Arch bridge-1"
 1026, 1171, 1172, 1173, 1174, 1484, 1629, 1630, 1631, 1632, 1942, 2087, 2088, 2089, 2090, 2400
 2545, 2546, 2547, 2548, 2858, 3003, 3004, 3005, 3006, 3316, 3461, 3462, 3463, 3464, 3774, 3919
 3920, 3921, 3922, 4232, 4377, 4378, 4379, 4380
*Nset, nset=SET-2, instance="Arch bridge-1"
   54,   55,   56,   57,   60,   61,   67,   68, 1146, 1147, 1148, 1149, 1150, 1151, 1152, 1153
 1154, 1155, 1161, 1167, 1168, 1169, 1170, 1171, 1172, 1173, 1174, 1175, 1176, 1177, 1207, 1208
 1209, 1219, 1220, 1221, 1228, 1229, 1230, 1231, 1232, 1233, 1234, 1235, 1236, 1237, 1341, 1342
 1343, 1344, 1345, 1346, 1347, 1348, 1349, 1350, 1351, 1352, 2766, 2767, 2768, 2769, 2770, 2771
 2772, 2773, 2774, 2775, 3613, 3614, 3615, 3616, 3617, 3618, 3619, 3620, 3621, 3622, 3623, 3624
 3625, 3626, 3627, 3628, 3629, 3630, 3631, 3632, 3633, 3634, 3635, 3636, 3637, 3638, 3639, 3640
 3641, 3642, 3876, 3877, 3878, 3879, 3880, 3881, 3882, 3883, 3884, 3885
*Elset, elset=SET-2, instance="Arch bridge-1"
 1121, 1130, 1146, 1150, 1153, 1198, 1199, 1200, 1201, 1202, 1223, 1579, 1588, 1604, 1608, 1611
 1656, 1657, 1658, 1659, 1660, 1681, 2037, 2046, 2062, 2066, 2069, 2114, 2115, 2116, 2117, 2118
 2139, 2495, 2504, 2520, 2524, 2527, 2572, 2573, 2574, 2575, 2576, 2597, 2953, 2962, 2978, 2982
 2985, 3030, 3031, 3032, 3033, 3034, 3055, 3411, 3420, 3436, 3440, 3443, 3488, 3489, 3490, 3491
 3492, 3513, 3869, 3878, 3894, 3898, 3901, 3946, 3947, 3948, 3949, 3950, 3971, 4327, 4336, 4352
 4356, 4359, 4404, 4405, 4406, 4407, 4408, 4429
*Nset, nset=SET-3, instance="Arch bridge-1"
   27,   36,   39,   48,   53,   54,   57,   61,   62,   68, 1134, 1135, 1136, 1137, 1138, 1139
 1140, 1141, 1142, 1143, 1144, 1145, 1167, 1178, 1179, 1180, 1181, 1182, 1183, 1184, 1185, 1186
 1187, 1188, 1189, 1216, 1217, 1218, 1219, 1220, 1221, 1238, 1239, 1240, 1241, 1242, 1243, 1244
 1245, 1246, 1247, 1248, 1249, 1352, 1353, 1354, 1355, 1356, 1357, 1358, 1359, 1360, 1361, 1362
 1363, 1364, 2776, 2777, 2778, 2779, 2780, 2781, 2782, 2783, 2784, 2785, 2786, 2787, 3577, 3578
 3579, 3580, 3581, 3582, 3583, 3584, 3585, 3586, 3587, 3588, 3589, 3590, 3591, 3592, 3593, 3594
 3595, 3596, 3597, 3598, 3599, 3600, 3601, 3602, 3603, 3604, 3605, 3606, 3607, 3608, 3609, 3610
 3611, 3612, 3886, 3887, 3888, 3889, 3890, 3891, 3892, 3893, 3894, 3895, 3896, 3897
*Elset, elset=SET-3, instance="Arch bridge-1"
 1068, 1069, 1095, 1107, 1117, 1129, 1163, 1168, 1197, 1245, 1284, 1287, 1290, 1526, 1527, 1553
 1565, 1575, 1587, 1621, 1626, 1655, 1703, 1742, 1745, 1748, 1984, 1985, 2011, 2023, 2033, 2045
 2079, 2084, 2113, 2161, 2200, 2203, 2206, 2442, 2443, 2469, 2481, 2491, 2503, 2537, 2542, 2571
 2619, 2658, 2661, 2664, 2900, 2901, 2927, 2939, 2949, 2961, 2995, 3000, 3029, 3077, 3116, 3119
 3122, 3358, 3359, 3385, 3397, 3407, 3419, 3453, 3458, 3487, 3535, 3574, 3577, 3580, 3816, 3817
 3843, 3855, 3865, 3877, 3911, 3916, 3945, 3993, 4032, 4035, 4038, 4274, 4275, 4301, 4313, 4323
 4335, 4369, 4374, 4403, 4451, 4490, 4493, 4496
*Nset, nset=SET-4, instance="Arch bridge-1"
   25,   32,   37,   44,   50,   51,   58,   64,   65,   69, 1058, 1059, 1060, 1061, 1062, 1063
 1064, 1065, 1066, 1067, 1190, 1191, 1192, 1193, 1194, 1195, 1196, 1197, 1198, 1199, 1200, 1213
 1214, 1215, 1225, 1226, 1227, 1316, 1317, 1318, 1319, 1320, 1321, 1322, 1323, 1324, 1325, 1365
 1366, 1367, 1368, 1369, 1370, 1371, 1372, 1373, 1374, 1375, 2788, 2789, 2790, 2791, 2792, 2793
 2794, 2795, 2796, 2797, 3757, 3758, 3759, 3760, 3761, 3762, 3763, 3764, 3765, 3766, 3767, 3768
 3769, 3770, 3771, 3772, 3773, 3774, 3775, 3776, 3777, 3778, 3779, 3780, 3781, 3782, 3783, 3784
 3785, 3786, 3898, 3899, 3900, 3901, 3902, 3903, 3904, 3905, 3906, 3907
*Elset, elset=SET-4, instance="Arch bridge-1"
 1019, 1020, 1021, 1027, 1031, 1032, 1141, 1174, 1175, 1176, 1177, 1477, 1478, 1479, 1485, 1489
 1490, 1599, 1632, 1633, 1634, 1635, 1935, 1936, 1937, 1943, 1947, 1948, 2057, 2090, 2091, 2092
 2093, 2393, 2394, 2395, 2401, 2405, 2406, 2515, 2548, 2549, 2550, 2551, 2851, 2852, 2853, 2859
 2863, 2864, 2973, 3006, 3007, 3008, 3009, 3309, 3310, 3311, 3317, 3321, 3322, 3431, 3464, 3465
 3466, 3467, 3767, 3768, 3769, 3775, 3779, 3780, 3889, 3922, 3923, 3924, 3925, 4225, 4226, 4227
 4233, 4237, 4238, 4347, 4380, 4381, 4382, 4383
*Nset, nset=SET-5, instance="Arch bridge-1"
   27,   29,   35,   36,   39,   41,   47,   48,   53,   54,   57,   61,   62,   68, 1134, 1135
 1136, 1137, 1138, 1139, 1140, 1141, 1142, 1143, 1144, 1145, 1167, 1178, 1179, 1180, 1181, 1182
 1183, 1184, 1185, 1186, 1187, 1188, 1189, 1216, 1217, 1218, 1219, 1220, 1221, 1238, 1239, 1240
 1241, 1242, 1243, 1244, 1245, 1246, 1247, 1248, 1249, 1352, 1353, 1354, 1355, 1356, 1357, 1358
 1359, 1360, 1361, 1362, 1363, 1364, 2776, 2777, 2778, 2779, 2780, 2781, 2782, 2783, 2784, 2785
 2786, 2787, 3577, 3578, 3579, 3580, 3581, 3582, 3583, 3584, 3585, 3586, 3587, 3588, 3589, 3590
 3591, 3592, 3593, 3594, 3595, 3596, 3597, 3598, 3599, 3600, 3601, 3602, 3603, 3604, 3605, 3606
 3607, 3608, 3609, 3610, 3611, 3612, 3886, 3887, 3888, 3889, 3890, 3891, 3892, 3893, 3894, 3895
 3896, 3897
*Elset, elset=SET-5, instance="Arch bridge-1"
  932, 1000, 1068, 1069, 1095, 1107, 1117, 1129, 1163, 1168, 1197, 1245, 1284, 1287, 1290, 1526
 1527, 1553, 1565, 1575, 1587, 1621, 1626, 1655, 1703, 1742, 1745, 1748, 1984, 1985, 2011, 2023
 2033, 2045, 2079, 2084, 2113, 2161, 2200, 2203, 2206, 2442, 2443, 2469, 2481, 2491, 2503, 2537
 2542, 2571, 2619, 2658, 2661, 2664, 2900, 2901, 2927, 2939, 2949, 2961, 2995, 3000, 3029, 3077
 3116, 3119, 3122, 3358, 3359, 3385, 3397, 3407, 3419, 3453, 3458, 3487, 3535, 3574, 3577, 3580
 3816, 3817, 3843, 3855, 3865, 3877, 3911, 3916, 3945, 3993, 4032, 4035, 4038, 4274, 4275, 4301
 4313, 4323, 4335, 4369, 4374, 4403, 4451, 4490, 4493, 4496
*Nset, nset=SET-6, instance="Arch bridge-1"
   25,   30,   32,   33,   37,   42,   44,   45,   50,   51,   58,   64,   65,   69, 1058, 1059
 1060, 1061, 1062, 1063, 1064, 1065, 1066, 1067, 1190, 1191, 1192, 1193, 1194, 1195, 1196, 1197
 1198, 1199, 1200, 1213, 1214, 1215, 1225, 1226, 1227, 1316, 1317, 1318, 1319, 1320, 1321, 1322
 1323, 1324, 1325, 1365, 1366, 1367, 1368, 1369, 1370, 1371, 1372, 1373, 1374, 1375, 2788, 2789
 2790, 2791, 2792, 2793, 2794, 2795, 2796, 2797, 3757, 3758, 3759, 3760, 3761, 3762, 3763, 3764
 3765, 3766, 3767, 3768, 3769, 3770, 3771, 3772, 3773, 3774, 3775, 3776, 3777, 3778, 3779, 3780
 3781, 3782, 3783, 3784, 3785, 3786, 3898, 3899, 3900, 3901, 3902, 3903, 3904, 3905, 3906, 3907
*Elset, elset=SET-6, instance="Arch bridge-1"
  865,  933, 1019, 1020, 1021, 1027, 1031, 1032, 1141, 1174, 1175, 1176, 1177, 1477, 1478, 1479
 1485, 1489, 1490, 1599, 1632, 1633, 1634, 1635, 1935, 1936, 1937, 1943, 1947, 1948, 2057, 2090
 2091, 2092, 2093, 2393, 2394, 2395, 2401, 2405, 2406, 2515, 2548, 2549, 2550, 2551, 2851, 2852
 2853, 2859, 2863, 2864, 2973, 3006, 3007, 3008, 3009, 3309, 3310, 3311, 3317, 3321, 3322, 3431
 3464, 3465, 3466, 3467, 3767, 3768, 3769, 3775, 3779, 3780, 3889, 3922, 3923, 3924, 3925, 4225
 4226, 4227, 4233, 4237, 4238, 4347, 4380, 4381, 4382, 4383
*End Assembly
** 
** MATERIALS
** 
*Material, name="Side wall left"
*Density
1200.,
*Elastic
 1.8e+09, 0.2
*Material, name="Side wall right"
*Density
1200.,
*Elastic
 1.8e+09, 0.2
*Material, name="Stone arches"
*Density
1600.,
*Elastic
 3e+09, 0.25
*Material, name="Timber block"
*Density
1300.,
*Elastic
 1.5e+09, 0.05
** 
** BOUNDARY CONDITIONS
** 
** Name: Disp-BC-1 Type: Symmetry/Antisymmetry/Encastre
*Boundary
SET-1, ENCASTRE
** Name: Disp-BC-2 Type: Symmetry/Antisymmetry/Encastre
*Boundary
SET-2, ENCASTRE
** Name: Disp-BC-3 Type: Symmetry/Antisymmetry/Encastre
*Boundary
SET-5, ENCASTRE
** Name: Disp-BC-4 Type: Symmetry/Antisymmetry/Encastre
*Boundary
SET-6, ENCASTRE
** ----------------------------------------------------------------
** 
** STEP: Modal Step
** 
*Step, name="Modal Step", nlgeom=NO, perturbation
*Frequency, eigensolver=Lanczos, sim, acoustic coupling=on, normalization=mass
18, , , , , 
** 
** OUTPUT REQUESTS
** 
*Restart, write, frequency=0
** 
** FIELD OUTPUT: F-Output-1
** 
*Output, field, variable=PRESELECT
*End Step
